%gen_inp

#  $Id: jyutping0.cin,v 1.4 2001/11/28 14:40:39 thhsieh Exp $
#  ====================================================================
#  
#  This cin file is originally converted from the "phrase box" file
#  available on the Linguistic Society of Hong Kong's website:
#  
#	http://www.hku.hk/linguist/lshk/
#
#  This is a special version with tonal marks stripped off; you might
#  find this a bit easier to use.
#  
#  You are free to use and redistribute this file; the author only
#  wishes you keep the following notice intact:
#  
#  "The copyright of the Jyutping phrase box belongs to the Linguistic
#  Society of Hong Kong.  We would like to thank the Jyutping Group of
#  the Linguistic Society of Hong Kong for permission to use the
#  electronic file in our research and/or product development."
#  
#  For more information about the Jyutping system, visit the above
#  website.  The romanisation system is a little bit different from
#  common Hong Kong usage, but this system is a lot more systematic.

#  This is the Jyutping without tone. Its original name is
#  jyutping-no_tone.cin, which is renamed to jyutping0.cin in
#  xcin source tree by T.H.Hsieh.

#  This is converted from the following script: "notone.pl"
#
#===========================================================================
# #!/usr/bin/perl
# #
# # Run with
# #
# # ./notone.pl < phrase.box | sort -k1,1 -s > notone.box
# #
# # to get a no-tone "phrase box" sorted by frequency count using libtabe's
# # database.
# #
#
# my %pinyin;
# my %tsi;
#
# #my $big5 = '[\x00-\x7F]|[\x81-\xFE][\x40-\x7E|\xA1-\xFE]';
#
# sub bytsicount {
#     $tsi{$b} <=> $tsi{$a};
# };
#
# while (<>) {
#     /([a-z]+)\d\s+(.+)/;
#     my $ref = \@{$pinyin{$2}};
#     grep /^$1/, @{$ref} or push @{$ref}, $1;
# }
#
# $TSI = "tsi.src";
# open TSI or die "please put tsi.src in the current directory\n";
# while (<TSI>) {
#     /^(.{2}) (\d+) .+/ or next;
#     $tsi{$1} = $2;
# }
#
# foreach $char (sort bytsicount keys %pinyin) {
#     foreach $yin (@{$pinyin{$char}}) {
#         print "$yin \t $char\n";
#     }
# }
#===========================================================================
#

%ename Cantonese (Toneless)
%cname 粵語拼音 (無調號版)
%encoding UTF-8
%selkey 1234567890
%endkey 123456
%keyname begin
a a
b b
c c
d d
e e
f f
g g
h h
i i
j j
k k
l l
m m
n n
o o
p p
q q
r r
s s
t t
u u
v v
w w
x x
y y
z z
1 1
2 2
3 3
4 4
5 5
6 6
%keyname end
%chardef begin
aa     阿
aa     亞
aa     啊
aa     雅
aa     呀
aa     丫
aa     啞
aa     鴉
aa     婭
aa     埡
aa     嗄
aa     氬
aa     錒
aa     椏
aa     掗
aa     襾
aai    唉
aai    埃
aai    哎
aai    矮
aai    挨
aai    隘
aai    欸
aai    嗌
aai    娭
aai    餲
aak    阿
aak    握
aak    厄
aak    軛
aak    扼
aak    搹
aak    軶
aam    菡
aan    晏
aan    鷃
aan    鴳
aang   罌
aang   甖
aap    鴨
aap    押
aat    堨
aat    壓
aat    押
aat    歹
aat    戛
aat    頞
aat    遏
aat    閼
aat    揠
aat    猒
aat    恝
aat    餲
aat    齃
aau    抓
aau    凹
aau    坳
aau    靿
aau    拗
aau    詏
ai     哎
ai     矮
ai     曀
ai     屭
ai     翳
ai     縊
ai     豷
ak     喔
ak     握
ak     啞
ak     厄
ak     呃
ak     阨
ak     渥
ak     扼
ak     搤
ak     幄
ak     腛
ak     偓
ak     齷
ak     餩
am     暗
am     菴
am     諳
am     闇
am     庵
am     媕
am     黯
am     晻
am     垵
am     盦
am     唵
am     鵪
am     腤
am     韽
ang    鞥
ang    鶯
ang    哽
ang    罃
au     區
au     歐
au     勾
au     嘔
au     鉤
au     鷗
au     敺
au     慪
au     毆
au     甌
au     鏂
au     漚
au     熰
au     謳
baa    把
baa    吧
baa    巴
baa    伯
baa    霸
baa    爸
baa    罷
baa    疤
baa    峇
baa    芭
baa    壩
baa    葩
baa    弝
baa    笆
baa    叭
baa    靶
baa    豝
baa    埧
baa    鈀
baa    灞
baa    粑
baai   拜
baai   敗
baai   擺
baai   掰
baai   憊
baai   粺
baai   唄
baai   湃
baai   襬
baai   稗
baai   捭
baak   白
baak   百
baak   伯
baak   柏
baak   佰
baak   迫
baak   匐
baak   蔔
baak   帛
baak   舶
baak   踣
baak   菔
baan   版
baan   班
baan   板
baan   辦
baan   斑
baan   頒
baan   扮
baan   瓣
baan   鈑
baan   昄
baan   闆
baan   湴
baan   斒
baan   攽
baan   魬
baan   舨
baan   瘢
baan   爿
baan   蝂
baang  蹦
baang  繃
baat   八
baat   捌
baat   茇
baat   魃
baau   包
baau   飽
baau   爆
baau   炮
baau   胞
baau   鮑
baau   齙
baau   苞
baau   孢
bai    陛
bai    幣
bai    弊
bai    閉
bai    敝
bai    蔽
bai    狴
bai    斃
bai    坒
bai    梐
bai    獘
bai    薜
bai    跛
bai    粺
bai    稗
bai    蜌
bak    北
bam    泵
bam    乓
ban    品
ban    份
ban    賓
ban    体
ban    斌
ban    濱
ban    笨
ban    彬
ban    奔
ban    臏
ban    檳
ban    嬪
ban    儐
ban    稟
ban    坌
ban    瀕
ban    汃
ban    邠
ban    髕
ban    擯
ban    賁
ban    蠙
ban    攽
ban    鑌
ban    鬢
ban    豳
ban    繽
ban    殯
ban    玢
ban    錛
ban    璸
bang   憑
bang   堋
bang   崩
bang   祊
bang   痭
bang   塴
bang   絣
bat    不
bat    筆
bat    佛
bat    畢
bat    拔
bat    甭
bat    嗶
bat    泌
bat    跋
bat    犮
bat    蹕
bat    弼
bat    篳
bat    苾
bat    彃
bat    鈸
bat    縪
bat    菝
bat    鼥
bat    蓽
bat    軷
bat    吥
bat    滭
bat    胈
be     啤
bei    被
bei    比
bei    費
bei    備
bei    秘
bei    避
bei    鼻
bei    祕
bei    悲
bei    彼
bei    俾
bei    碑
bei    臂
bei    芘
bei    妣
bei    卑
bei    泌
bei    糒
bei    庇
bei    邲
bei    鵯
bei    裨
bei    憊
bei    毖
bei    鉍
bei    椑
bei    襣
bei    骳
bei    閟
bei    髀
bei    轡
bei    羆
bei    痺
bei    奰
bei    跛
bei    蓖
bei    賁
bei    柲
bei    陂
bei    藣
bei    屄
bei    鞁
bei    髲
bei    匕
bei    媲
bei    箄
bei    痹
bei    篦
bei    疕
bei    畀
bei    秕
bei    箅
bei    犤
bei    詖
bei    沘
bei    萆
bei    柀
bei    贔
bei    鞞
bei    鄪
bei    潷
bek    壁
beng   病
beng   餅
beng   柄
beng   鉼
bik    碧
bik    壁
bik    迫
bik    逼
bik    璧
bik    襞
bik    皕
bik    綼
bik    愎
bik    腷
bik    楅
bik    湢
bik    愊
bik    躄
bik    揊
bik    偪
bin    砭
bin    便
bin    扁
bin    變
bin    邊
bin    遍
bin    卞
bin    辨
bin    貶
bin    辯
bin    釆
bin    弁
bin    鞭
bin    匾
bin    蝙
bin    褊
bin    忭
bin    汴
bin    辮
bin    萹
bin    抃
bin    窆
bin    碥
bin    籩
bin    猵
bin    惼
bin    汳
bin    箯
bin    艑
bin    稨
bing   並
bing   病
bing   冰
bing   丙
bing   併
bing   屏
bing   兵
bing   炳
bing   餅
bing   摒
bing   秉
bing   柄
bing   并
bing   鉼
bing   檳
bing   寎
bing   邴
bing   乒
bing   迸
bing   昺
bing   栟
bing   掤
bing   鞞
bing   怲
bit    別
bit    必
bit    鱉
bit    彆
bit    鷩
bit    駜
bit    虌
bit    憋
bit    珌
bit    飶
bit    癟
bit    馝
bit    襒
bit    咇
bit    怭
bit    觱
bit    蹩
bit    佖
bit    鮅
biu    表
biu    標
biu    票
biu    錶
biu    穮
biu    飆
biu    膘
biu    滮
biu    鏢
biu    褾
biu    俵
biu    驫
biu    彪
biu    裱
biu    儦
biu    藨
biu    臕
biu    杓
biu    颮
biu    鑣
biu    麃
biu    颩
biu    婊
biu    熛
biu    蔈
biu    瀌
biu    瘭
biu    髟
biu    猋
bo     波
bo     般
bo     播
bo     坡
bo     玻
bo     菠
bo     簸
bo     跛
bo     啵
bo     嶓
bo     鄱
bo     碆
bo     譒
bok    博
bok    薄
bok    泊
bok    搏
bok    駁
bok    縛
bok    礡
bok    胉
bok    剝
bok    箔
bok    嚗
bok    瓟
bok    亳
bok    舶
bok    鉑
bok    餺
bok    糪
bok    欂
bok    猼
bok    謈
bok    雹
bok    懪
bok    僰
bok    膊
bok    瓝
bok    駮
bok    壆
bok    髆
bok    犦
bok    鑮
bok    襮
bok    鎛
bong   邦
bong   幫
bong   榜
bong   磅
bong   綁
bong   傍
bong   蒡
bong   埲
bong   膀
bong   鎊
bong   甏
bong   牓
bong   梆
bong   縍
bong   鞤
bou    報
bou    部
bou    保
bou    寶
bou    布
bou    補
bou    步
bou    埔
bou    堡
bou    暴
bou    簿
bou    佈
bou    埠
bou    捕
bou    怖
bou    葆
bou    晡
bou    褒
bou    抪
bou    哺
bou    褓
bou    逋
bou    圃
bou    駂
bou    煲
bou    餔
bou    篰
bou    鵏
bou    菢
bou    鴇
bou    峬
bou    蔀
bou    孬
bou    虣
bui    孛
bui    貝
bui    盃
bui    背
bui    杯
bui    悖
bui    輩
bui    揹
bui    桮
bui    鋇
bui    焙
bui    褙
bui    棓
bui    邶
bui    偝
bui    浿
bui    誖
bui    狽
buk    暴
buk    卜
buk    伏
buk    僕
buk    樸
buk    瀑
buk    濮
buk    纀
buk    曝
buk    襆
buk    蹼
buk    鏷
buk    轐
buk    襮
buk    醭
bun    本
bun    半
bun    般
bun    伴
bun    胖
bun    搬
bun    苯
bun    畔
bun    拌
bun    叛
bun    絆
bun    畚
bun    靽
bun    姅
bun    柈
bung   捧
bung   埲
bung   玤
bung   菶
bung   琫
but    撥
but    孛
but    勃
but    桲
but    跋
but    缽
but    哱
but    葧
but    餑
but    鈸
but    襏
but    鱍
but    荸
but    鵓
but    脖
but    渤
but    浡
but    馞
but    蹳
but    鋍
caa    查
caa    茶
caa    差
caa    衩
caa    叉
caa    侘
caa    詫
caa    岔
caa    秅
caa    蹅
caa    喳
caa    奼
caa    楂
caa    扠
caa    蜡
caa    搽
caa    汊
caa    槎
caa    艖
caa    嗏
caa    杈
caa    垞
caai   差
caai   釵
caai   猜
caai   柴
caai   踩
caai   茈
caai   儕
caai   踹
caai   喍
caai   囆
caai   瘥
caai   搋
caai   豺
caai   蠆
caai   嘬
caak   測
caak   策
caak   冊
caak   拆
caak   賊
caak   柵
caak   惻
caak   坼
caak   筴
caak   圠
caak   茦
caam   參
caam   杉
caam   慘
caam   蚕
caam   蠶
caam   舕
caam   憯
caam   梫
caam   懺
caam   讒
caam   毚
caam   黲
caam   獑
caam   篸
caam   攙
caam   辿
caam   欃
caam   劖
caam   慚
caam   朁
caam   饞
caam   讖
caam   瀺
caam   驂
caam   巉
caam   儳
caam   嚵
caam   縿
caam   鑱
caan   產
caan   餐
caan   殘
caan   燦
caan   璨
caan   鏟
caan   剷
caan   粲
caan   羼
caan   滻
caan   澯
caan   孱
caang  爭
caang  撐
caang  橙
caang  掁
caang  瞠
caang  撜
caang  倀
caang  棖
caang  橕
caang  朾
caap   插
caap   臿
caap   鍤
caat   刷
caat   察
caat   擦
caat   獺
caat   剎
caat   嚓
caat   唰
caat   礤
caau   炒
caau   吵
caau   抄
caau   巢
caau   鈔
caau   勦
caau   訬
caau   肏
caau   鄛
caau   罺
caau   耖
caau   樔
caau   轈
cai    切
cai    齊
cai    棲
cai    妻
cai    砌
cai    薺
cai    淒
cai    萋
cai    傺
cai    郪
cai    凄
cai    悽
cai    栖
cai    蠐
cai    沏
cai    懠
cai    鱭
cak    測
cak    畟
cak    廁
cak    惻
cam    參
cam    尋
cam    沈
cam    沉
cam    侵
cam    蕈
cam    踸
cam    寢
cam    磣
cam    寑
cam    棽
cam    篸
cam    撏
cam    潯
cam    鬵
cam    蕁
cam    嵾
cam    灊
cam    譖
cam    讖
cam    鱘
cam    諃
cam    唚
cam    噚
cam    燅
cam    駸
cam    噆
cam    鄩
cam    燖
cam    墋
can    陳
can    稱
can    親
can    診
can    塵
can    趁
can    疢
can    襯
can    疹
can    齔
can    嗔
can    抻
can    瞋
can    儭
can    嚫
can    櫬
can    哂
can    矧
can    捵
can    蔯
can    辴
can    瀙
cang   曾
cang   層
cang   竀
cang   噌
cang   嶒
cang   鄫
cap    輯
cap    緝
cap    戢
cap    葺
cap    緁
cap    蕺
cap    濈
cap    咠
cat    七
cat    漆
cat    柒
cat    桼
cau    秋
cau    抽
cau    丑
cau    仇
cau    臭
cau    籌
cau    鰍
cau    惆
cau    醜
cau    酬
cau    傶
cau    杻
cau    溴
cau    湊
cau    疇
cau    稠
cau    儔
cau    嗅
cau    綢
cau    蝤
cau    糗
cau    犨
cau    囚
cau    酋
cau    萩
cau    篘
cau    酘
cau    懤
cau    搊
cau    讎
cau    鞦
cau    瞅
cau    鶖
cau    楸
cau    泅
cau    紬
cau    崷
cau    緧
cau    躊
cau    瘳
cau    腠
cau    裯
cau    殠
cau    遒
cau    幬
cau    鮂
cau    輳
cau    雔
cau    詶
ce     且
ce     車
ce     尺
ce     邪
ce     斜
ce     扯
ce     硨
ce     奢
ce     哆
ce     檨
ce     輋
ce     撦
cek    赤
cek    尺
cek    呎
ceng   請
ceng   清
ceng   晴
ceng   青
ceoi   揣
ceoi   除
ceoi   徐
ceoi   取
ceoi   隨
ceoi   翠
ceoi   趨
ceoi   隋
ceoi   吹
ceoi   趣
ceoi   崔
ceoi   催
ceoi   炊
ceoi   廚
ceoi   磪
ceoi   椎
ceoi   衰
ceoi   娶
ceoi   捶
ceoi   腄
ceoi   脆
ceoi   橇
ceoi   鎚
ceoi   墔
ceoi   倅
ceoi   摧
ceoi   覷
ceoi   槌
ceoi   淬
ceoi   璀
ceoi   竁
ceoi   菙
ceoi   綷
ceoi   搥
ceoi   蛆
ceoi   箠
ceoi   啐
ceoi   漼
ceoi   縗
ceoi   焠
ceoi   膬
ceoi   鏙
ceoi   貙
ceoi   棰
ceoi   趡
ceoi   嗺
ceoi   脺
ceoi   膗
ceoi   趍
ceoi   毳
ceoi   榱
ceon   春
ceon   秦
ceon   馴
ceon   巡
ceon   循
ceon   旬
ceon   椿
ceon   賰
ceon   蠢
ceon   杶
ceon   輴
ceon   橁
ceon   螓
ceon   偆
ceon   栒
ceon   紃
ceot   出
ceot   齣
ceot   絀
ceot   黜
ci     此
ci     次
ci     持
ci     治
ci     差
ci     瓷
ci     始
ci     詞
ci     茲
ci     慈
ci     似
ci     池
ci     坻
ci     佽
ci     磁
ci     賜
ci     汜
ci     疵
ci     齒
ci     刺
ci     褫
ci     辭
ci     馳
ci     拸
ci     荎
ci     恀
ci     遲
ci     矢
ci     翅
ci     雌
ci     恥
ci     祠
ci     痴
ci     豕
ci     匙
ci     莿
ci     癡
ci     恣
ci     蚳
ci     茈
ci     熾
ci     佌
ci     臍
ci     眙
ci     薺
ci     眵
ci     廁
ci     茬
ci     儩
ci     鴟
ci     峙
ci     玆
ci     恃
ci     嗤
ci     侈
ci     鶿
ci     弛
ci     茨
ci     幟
ci     庛
ci     玼
ci     柿
ci     瓻
ci     啻
ci     郗
ci     餈
ci     飺
ci     齝
ci     搋
ci     蚝
ci     魑
ci     篪
ci     薋
ci     扡
ci     墀
ci     朿
ci     蛓
ci     笞
ci     哆
ci     螭
ci     髊
ci     跮
ci     哧
ci     茌
ci     姒
ci     蚩
ci     歭
ci     杝
ci     攡
ci     奓
ci     骴
ci     謻
ci     踟
ci     絺
ci     泚
ci     摛
ci     箎
ci     黐
ci     嘁
ci     箈
ci     翨
ci     胵
ci     誃
ci     姼
ci     胔
ci     跐
ci     媸
ci     泜
ci     胣
ci     饎
ci     偨
ci     絘
cik    赤
cik    析
cik    慼
cik    刺
cik    戚
cik    斥
cik    抶
cik    飭
cik    敕
cik    螫
cik    鷘
cik    叱
cik    鏚
cik    彳
cik    摵
cik    鼜
cik    鶒
cim    憸
cim    簽
cim    潛
cim    纖
cim    幨
cim    籤
cim    塹
cim    僭
cim    諂
cim    暹
cim    殲
cim    僉
cim    鬵
cim    櫼
cim    孅
cim    綅
cim    鋟
cim    燅
cim    銛
cim    槧
cim    薟
cim    酟
cim    攕
cim    嬐
cim    燂
cin    前
cin    千
cin    錢
cin    仟
cin    淺
cin    芊
cin    遷
cin    俴
cin    闡
cin    纏
cin    扦
cin    踐
cin    阡
cin    梴
cin    廛
cin    躔
cin    瀍
cin    韆
cin    幝
cin    蕆
cin    嘽
cin    囅
cin    燀
cing   請
cing   成
cing   情
cing   程
cing   清
cing   稱
cing   晴
cing   青
cing   呈
cing   菁
cing   澄
cing   秤
cing   埕
cing   撜
cing   酲
cing   瞪
cing   懲
cing   氰
cing   赬
cing   逞
cing   鯖
cing   蜻
cing   拯
cing   騁
cing   蟶
cing   郢
cing   澂
cing   檉
cing   圊
cing   裎
cing   偁
cing   餳
cip    鯜
cip    妾
cip    詀
cip    呫
cip    踥
cip    跕
cip    菨
cit    設
cit    切
cit    徹
cit    撤
cit    懘
cit    澈
cit    磩
cit    掣
cit    轍
cit    沏
cit    屮
cit    蔎
ciu    超
ciu    朝
ciu    昭
ciu    潮
ciu    樵
ciu    誚
ciu    瞧
ciu    晁
ciu    幧
ciu    俏
ciu    鍬
ciu    肖
ciu    悄
ciu    愀
ciu    鞘
ciu    譙
ciu    釗
ciu    憔
ciu    睄
ciu    繰
ciu    峭
ciu    帩
ciu    弨
ciu    煍
ciu    燋
ciu    怊
ciu    劁
ciu    嶕
ciu    偢
ciu    嫶
co     初
co     坐
co     楚
co     錯
co     挫
co     礎
co     痤
co     雛
co     矬
co     搓
co     蓌
co     鶵
co     鹺
co     犓
co     瘥
co     蹉
co     鉏
co     芻
co     鋤
co     瑳
co     磋
co     侳
co     銼
co     醝
co     濋
co     莏
co     剉
co     莝
co     嵯
co     媰
co     儊
co     檚
co     阤
co     傞
co     耡
co     脞
coek   桌
coek   卓
coek   倬
coek   噱
coek   戳
coek   綽
coek   鵲
coek   芍
coek   灼
coek   婥
coek   婼
coek   穛
coek   焯
coek   皵
coek   碏
coek   趠
coek   踔
coek   逴
coeng  長
coeng  場
coeng  祥
coeng  昌
coeng  詳
coeng  窗
coeng  翔
coeng  搶
coeng  唱
coeng  腸
coeng  廧
coeng  牆
coeng  槍
coeng  悵
coeng  萇
coeng  薔
coeng  暢
coeng  倡
coeng  瑲
coeng  嗆
coeng  錩
coeng  鎗
coeng  娼
coeng  庠
coeng  鏘
coeng  檣
coeng  蹌
coeng  羥
coeng  囪
coeng  菖
coeng  墻
coeng  鼚
coeng  戧
coeng  熗
coeng  倀
coeng  鯧
coeng  瑒
coeng  牄
coeng  戕
coeng  斨
coeng  謒
coeng  猖
coeng  錆
coeng  爿
coeng  嬙
coeng  鬯
coeng  蘠
coeng  韔
coeng  閶
coeng  蹡
coi    才
coi    蔡
coi    財
coi    採
coi    賽
coi    彩
coi    材
coi    菜
coi    塞
coi    采
coi    裁
coi    啋
coi    纔
coi    埰
coi    寀
coi    茞
coi    綵
coi    睬
coi    跴
coi    縩
coi    跐
cok    錯
cok    剒
cok    擉
cong   廠
cong   創
cong   藏
cong   搶
cong   床
cong   倉
cong   艙
cong   撞
cong   蒼
cong   傖
cong   闖
cong   滄
cong   昶
cong   刱
cong   敞
cong   幢
cong   橦
cong   瘡
cong   磢
cong   鶬
cong   駔
cong   愴
cong   氅
cong   鋹
cong   凔
cong   戃
cong   惝
cou    造
cou    草
cou    操
cou    錯
cou    曹
cou    槽
cou    粗
cou    厝
cou    措
cou    麤
cou    躁
cou    醋
cou    漕
cou    燥
cou    譟
cou    嘈
cou    澡
cou    噪
cou    殂
cou    鄵
cou    喿
cou    傮
cou    慥
cou    觕
cou    糙
cou    螬
cou    趮
cou    艚
cou    徂
cou    艸
cou    慅
cou    懆
cou    騲
cou    跿
cou    矂
cou    氉
cuk    速
cuk    促
cuk    趨
cuk    觸
cuk    趣
cuk    束
cuk    畜
cuk    齱
cuk    俶
cuk    蓄
cuk    豖
cuk    鄐
cuk    簇
cuk    齪
cuk    蹴
cuk    樕
cuk    蹙
cuk    歜
cuk    瘯
cuk    敊
cuk    矗
cuk    餗
cuk    踧
cuk    搐
cuk    涑
cuk    亍
cuk    慉
cuk    蔟
cuk    斶
cuk    簌
cuk    蔌
cuk    顣
cuk    觫
cuk    諔
cuk    憱
cuk    滀
cuk    娖
cung   從
cung   重
cung   松
cung   蟲
cung   充
cung   沖
cung   憧
cung   衝
cung   聰
cung   瑽
cung   种
cung   虫
cung   叢
cung   蔥
cung   塚
cung   寵
cung   忡
cung   琮
cung   璁
cung   涌
cung   樅
cung   衷
cung   銃
cung   囪
cung   茺
cung   珫
cung   匆
cung   淙
cung   冢
cung   藂
cung   漎
cung   摐
cung   驄
cung   賨
cung   鏦
cung   憃
cung   爞
cung   罿
cung   悰
cung   揰
cung   埇
cung   蓯
cung   浺
cyu    處
cyu    除
cyu    署
cyu    柱
cyu    儲
cyu    廚
cyu    褚
cyu    貯
cyu    篨
cyu    曙
cyu    躇
cyu    櫥
cyu    宁
cyu    佇
cyu    楮
cyu    麆
cyu    芧
cyu    杵
cyu    杼
cyu    幮
cyu    蜍
cyu    紵
cyu    苧
cyu    滁
cyu    羜
cyu    躕
cyun   全
cyun   傳
cyun   村
cyun   揣
cyun   存
cyun   川
cyun   泉
cyun   吋
cyun   痊
cyun   穿
cyun   串
cyun   詮
cyun   銓
cyun   寸
cyun   喘
cyun   牷
cyun   竄
cyun   釧
cyun   蹲
cyun   忖
cyun   荃
cyun   醛
cyun   遄
cyun   荈
cyun   踳
cyun   踹
cyun   攢
cyun   筌
cyun   輇
cyun   恮
cyun   攛
cyun   椽
cyun   躥
cyun   欑
cyun   舛
cyun   佺
cyun   縓
cyun   爨
cyun   踆
cyun   汆
cyun   墫
cyun   氚
cyun   玔
cyun   巑
cyun   歂
cyun   圌
cyun   刌
cyun   跧
cyut   卒
cyut   撮
cyut   猝
cyut   椊
cyut   咄
cyut   捽
cyut   踅
cyut   繓
daa    打
daai   大
daai   帶
daai   戴
daai   呆
daai   歹
daai   獃
daai   釱
daai   軑
daai   蔕
daai   蹛
daai   汏
daai   傣
daai   襶
daak   咑
daam   石
daam   淡
daam   擔
daam   膽
daam   氮
daam   眈
daam   湛
daam   啖
daam   耽
daam   儋
daam   紞
daam   澹
daam   酖
daam   啗
daam   聃
daam   賧
daam   噉
daam   憺
daam   髧
daam   甔
daam   嚪
daam   窞
daam   餤
daam   萏
daam   霮
daan   但
daan   單
daan   蛋
daan   丹
daan   彈
daan   旦
daan   誕
daan   撣
daan   憚
daan   繵
daan   襌
daan   簞
daan   鉭
daan   癉
daan   殫
daan   鄲
daan   僤
daan   蜑
daan   匰
daan   燀
daap   答
daap   搭
daap   踏
daap   鞳
daap   疊
daap   遝
daap   蹋
daap   褡
daap   荅
daap   嚃
daap   沓
daap   瘩
daap   鞜
daap   畣
daap   匒
daap   耷
daat   達
daat   笪
daat   呾
daat   妲
daat   繨
daat   噠
daat   鐽
daat   怛
daat   靼
daat   薘
dai    第
dai    低
dai    砥
dai    底
dai    帝
dai    抵
dai    蒂
dai    坻
dai    弟
dai    遞
dai    牴
dai    諦
dai    邸
dai    隸
dai    悌
dai    棣
dai    踶
dai    埭
dai    締
dai    逮
dai    磾
dai    娣
dai    氐
dai    釱
dai    嵽
dai    胝
dai    觝
dai    碲
dai    柢
dai    禘
dai    睼
dai    杕
dai    弤
dai    蝃
dai    蔕
dai    阺
dai    彽
dai    詆
dai    羝
dai    鞮
dai    渧
dai    墆
dai    軧
dai    螮
dai    揥
dai    遰
dak    得
dak    特
dak    德
dak    螣
dam    黕
dam    抌
dam    榃
dam    沊
dan    墩
dan    躉
dan    撉
dan    燉
dan    扽
dang   等
dang   登
dang   燈
dang   鄧
dang   澄
dang   凳
dang   瞪
dang   蹬
dang   鐙
dang   豋
dang   嶝
dang   簦
dang   磴
dang   墱
dang   戥
dat    突
dat    怢
dat    凸
dat    鼵
dat    蟘
dat    葖
dat    腯
dat    犆
dau    讀
dau    鬥
dau    豆
dau    斗
dau    陡
dau    竇
dau    兜
dau    糾
dau    痘
dau    逗
dau    荳
dau    抖
dau    梪
dau    脰
dau    唗
dau    郖
dau    枓
dau    餖
dau    赳
dau    鋀
dau    浢
dau    蚪
dau    鈄
de     爹
de     嗲
de     襶
dei    地
dei    墬
dek    笛
dek    篴
dek    糴
deng   地
deng   定
deng   訂
deng   頂
deng   釘
deng   疔
deng   掟
deoi   對
deoi   隊
deoi   敦
deoi   憝
deoi   堆
deoi   兌
deoi   膇
deoi   薱
deoi   碓
deoi   懟
deoi   錞
deoi   鐓
deoi   譈
deoi   轛
deon   惇
deon   敦
deon   頓
deon   噸
deon   墩
deon   吨
deon   礅
deon   蹲
deon   諄
deon   鈍
deon   燉
deon   遁
deon   囤
deon   沌
deon   遯
deon   盹
deon   墫
deon   炖
deot   咄
deot   柮
deu    調
deu    掉
dik    的
dik    迪
dik    適
dik    狄
dik    滴
dik    敵
dik    滌
dik    翟
dik    嘀
dik    旳
dik    荻
dik    鍉
dik    藋
dik    玓
dik    鏑
dik    靮
dik    嫡
dik    甋
dik    踧
dik    蹢
dik    覿
dik    菂
dik    浟
dim    點
dim    店
dim    扂
dim    墊
dim    玷
dim    蒧
dim    痁
dim    掂
dim    磹
dim    踮
dim    敁
dim    惦
dim    坫
dim    阽
din    電
din    典
din    殿
din    墊
din    瘨
din    甸
din    碘
din    滇
din    癲
din    奠
din    澱
din    顛
din    佃
din    鈿
din    蹎
din    巔
din    靛
din    淀
din    痶
din    癜
din    傎
din    齻
ding   定
ding   訂
ding   頂
ding   丁
ding   鼎
ding   汀
ding   釘
ding   錠
ding   碇
ding   仃
ding   叮
ding   盯
ding   耵
ding   啶
ding   酊
ding   椗
ding   疔
ding   玎
ding   艼
ding   飣
ding   薡
ding   靪
ding   濎
dip    碟
dip    蝶
dip    疊
dip    諜
dip    褶
dip    蜨
dip    蹀
dip    牒
dip    鰈
dip    堞
dip    楪
dip    喋
dip    褋
dip    艓
dip    跕
dip    揲
dip    啑
dip    惵
dit    跌
dit    耋
dit    迭
dit    眣
dit    秩
dit    軼
dit    絰
dit    咥
dit    瓞
dit    昳
dit    紩
dit    袟
dit    翐
dit    苵
dit    帙
dit    柣
dit    螲
dit    墆
dit    詄
dit    垤
dit    臷
diu    調
diu    掉
diu    釣
diu    雕
diu    鯛
diu    丟
diu    吊
diu    鵰
diu    琱
diu    貂
diu    蛁
diu    屌
diu    弔
diu    凋
diu    銩
diu    窵
diu    盄
diu    刁
diu    彫
diu    窕
diu    銚
diu    錭
diu    叼
diu    碉
diu    蓧
diu    誂
do     多
do     跺
do     朵
do     躲
do     陏
do     墮
do     陊
do     埵
do     惰
do     鬌
do     剁
do     奲
do     垛
do     哆
do     嚲
do     嶞
do     墯
doe    朵
doek   啄
doek   琢
doek   斲
doek   椓
doek   剁
doek   涿
doek   諑
doek   啅
doek   噣
doi    代
doi    待
doi    袋
doi    迨
doi    黛
doi    岱
doi    玳
doi    埭
doi    怠
doi    逮
doi    靆
doi    殆
doi    蝳
doi    紿
doi    祋
doi    酨
dok    度
dok    鐸
dok    踱
dok    剫
dok    襗
dong   當
dong   檔
dong   黨
dong   擋
dong   党
dong   盪
dong   蕩
dong   噹
dong   菪
dong   襠
dong   瓽
dong   簹
dong   璗
dong   戙
dong   碭
dong   婸
dong   踼
dong   瑒
dong   艡
dong   欓
dong   宕
dong   蟷
dong   簜
dong   鐺
dong   讜
dong   愓
dong   璫
dong   逿
dong   潒
dong   攩
dou    到
dou    都
dou    道
dou    島
dou    度
dou    導
dou    杜
dou    刀
dou    倒
dou    渡
dou    盜
dou    禱
dou    賭
dou    稻
dou    鍍
dou    妒
dou    悼
dou    嘟
dou    蹈
dou    堵
dou    睹
dou    秺
dou    翿
dou    舠
dou    搗
dou    魛
dou    斁
dou    燾
dou    壔
dou    叨
dou    蠹
dou    鳭
dou    闍
dou    氘
dou    擣
dou    忉
dou    捯
dou    纛
dou    芏
dou    幬
duk    讀
duk    毒
duk    獨
duk    頓
duk    督
duk    篤
duk    犢
duk    讟
duk    韇
duk    瀆
duk    牘
duk    韣
duk    髑
duk    碡
duk    裻
duk    黷
duk    皾
duk    纛
duk    櫝
duk    殰
duk    贕
dung   東
dung   動
dung   懂
dung   董
dung   冬
dung   洞
dung   棟
dung   硐
dung   凍
dung   炵
dung   咚
dung   鶇
dung   崠
dung   戙
dung   峒
dung   踵
dung   慟
dung   胴
dung   衕
dung   鮦
dung   涷
dung   氡
dung   蝀
dung   蕫
dung   柊
dung   恫
dung   湩
dung   垌
dung   鼕
dung   挏
dyun   段
dyun   端
dyun   短
dyun   斷
dyun   鍛
dyun   緞
dyun   籪
dyun   碫
dyun   耑
dyun   椴
dyun   毈
dyun   腶
dyut   奪
dyut   敓
e      誒
ei     欸
faa    華
faa    化
faa    花
faa    蘤
faa    杹
faai   快
faai   塊
faai   磈
faai   傀
faai   筷
faai   噲
faan   反
faan   範
faan   凡
faan   范
faan   泛
faan   翻
faan   飯
faan   犯
faan   釩
faan   蕃
faan   返
faan   番
faan   煩
faan   繁
faan   販
faan   帆
faan   藩
faan   梵
faan   阪
faan   汎
faan   瓣
faan   樊
faan   氾
faan   笲
faan   膰
faan   繙
faan   礬
faan   璠
faan   颿
faan   笵
faan   幡
faan   鋄
faan   燔
faan   軓
faan   薠
faan   旛
faan   籓
faan   蘩
faan   瀿
faan   鷭
faan   畈
faan   犿
faan   羳
faan   墦
faan   軬
faan   蠜
faan   鐇
faan   轓
faan   蹯
faat   法
faat   發
faat   髮
faat   琺
faat   砝
fai    費
fai    輝
fai    廢
fai    揮
fai    肺
fai    暉
fai    隳
fai    徽
fai    麾
fai    褘
fai    吠
fai    俷
fai    鰴
fai    煇
fai    疿
fai    墮
fai    沸
fai    癈
fai    芾
fai    昲
fai    楎
fai    翬
fai    痱
fai    墯
fai    鐨
fai    櫠
fai    撝
fan    分
fan    芬
fan    份
fan    訓
fan    粉
fan    婚
fan    勳
fan    薰
fan    噴
fan    坋
fan    臐
fan    葷
fan    紛
fan    憤
fan    勛
fan    酚
fan    糞
fan    奮
fan    昏
fan    妢
fan    熏
fan    焚
fan    棻
fan    氛
fan    墳
fan    燻
fan    棼
fan    蒶
fan    蚡
fan    忿
fan    吩
fan    纁
fan    賁
fan    雰
fan    涽
fan    鼢
fan    幩
fan    緡
fan    獯
fan    棔
fan    汾
fan    鼖
fan    玢
fan    醺
fan    濆
fan    焄
fan    砏
fan    惛
fan    僨
fan    羒
fan    曛
fan    蕡
fan    黂
fan    枌
fan    歕
fan    豶
fan    睧
fan    羵
fan    籸
fan    翂
fan    閽
fan    轒
fan    瀵
fan    殙
fan    窨
fan    魵
fan    饙
fang   揈
fat    佛
fat    閥
fat    巿
fat    惚
fat    弗
fat    氟
fat    忽
fat    罰
fat    筏
fat    窟
fat    笏
fat    伐
fat    乏
fat    堀
fat    韍
fat    拂
fat    彿
fat    袚
fat    茷
fat    疺
fat    茀
fat    笰
fat    昒
fat    芴
fat    瞂
fat    黻
fat    紱
fat    曶
fat    芾
fat    咈
fat    紼
fat    淴
fat    祓
fat    怫
fat    坲
fat    狒
fat    囫
fat    欻
fat    帗
fat    岪
fat    魆
fat    刜
fat    艴
fat    沷
fat    綍
fau    復
fau    否
fau    浮
fau    埠
fau    阜
fau    峊
fau    裒
fau    缶
fau    鴀
fau    涪
fau    芣
fau    蜉
fau    琈
fau    紑
fau    罘
fau    缹
fau    罦
fau    烰
fei    非
fei    飛
fei    菲
fei    婓
fei    肥
fei    緋
fei    妃
fei    斐
fei    啡
fei    匪
fei    腓
fei    誹
fei    鯡
fei    剕
fei    騑
fei    翡
fei    篚
fei    淝
fei    霏
fei    扉
fei    棐
fei    蜚
fei    榧
fei    蜰
fei    朏
fei    狒
fei    痱
fei    屝
fei    悱
fei    陫
fei    馡
fo     科
fo     課
fo     火
fo     貨
fo     顆
fo     棵
fo     伙
fo     夥
fo     堁
fo     蝌
fo     騍
fo     髁
fo     窠
fo     稞
fo     吙
fo     鈥
fok    霍
fok    縛
fok    藿
fok    攫
fok    貜
fok    臛
fok    躩
fok    蠼
fok    矍
fok    彏
fok    玃
fok    攉
fok    戄
fong   方
fong   放
fong   芳
fong   房
fong   防
fong   訪
fong   坊
fong   況
fong   紡
fong   衁
fong   仿
fong   晃
fong   妨
fong   荒
fong   彷
fong   怳
fong   舫
fong   肪
fong   瓬
fong   皝
fong   倣
fong   慌
fong   謊
fong   鈁
fong   昉
fong   枋
fong   恍
fong   熀
fong   肓
fong   幌
fong   魴
fong   榥
fong   邡
fong   貺
fong   巟
fong   汸
fong   髣
fong   匚
fong   滉
fu     富
fu     負
fu     附
fu     庫
fu     副
fu     府
fu     赴
fu     輔
fu     戲
fu     夫
fu     虎
fu     呼
fu     褲
fu     苦
fu     甫
fu     傅
fu     付
fu     符
fu     婦
fu     乎
fu     父
fu     膚
fu     扶
fu     賦
fu     芙
fu     孚
fu     撫
fu     刳
fu     桴
fu     楛
fu     褔
fu     枯
fu     敷
fu     寣
fu     腐
fu     蝜
fu     斧
fu     滹
fu     泭
fu     衭
fu     嘸
fu     伕
fu     仆
fu     俯
fu     唬
fu     脯
fu     祔
fu     腑
fu     鳧
fu     戽
fu     胕
fu     麩
fu     孵
fu     痡
fu     蚨
fu     蚹
fu     鄜
fu     琥
fu     拊
fu     郛
fu     歑
fu     釜
fu     俘
fu     趺
fu     砆
fu     莆
fu     鳺
fu     咐
fu     枎
fu     尃
fu     謼
fu     跗
fu     郙
fu     膴
fu     俛
fu     黼
fu     鮒
fu     骷
fu     頫
fu     莩
fu     駙
fu     訃
fu     賻
fu     幠
fu     弣
fu     簠
fu     枹
fu     榑
fu     蜅
fu     鈇
fu     虍
fu     偩
fu     稃
fu     苻
fu     挎
fu     罦
fu     荴
fu     柎
fu     滏
fu     垺
fu     虖
fu     軵
fui    灰
fui    奎
fui    悝
fui    魁
fui    悔
fui    誨
fui    賄
fui    洧
fui    鮪
fui    恢
fui    喙
fui    晦
fui    顪
fui    詼
fui    虺
fui    豗
fui    櫆
fui    痏
fuk    福
fuk    腹
fuk    服
fuk    復
fuk    幅
fuk    複
fuk    覆
fuk    伏
fuk    蝠
fuk    輻
fuk    馥
fuk    鴔
fuk    复
fuk    纀
fuk    茯
fuk    葍
fuk    蝮
fuk    愎
fuk    輹
fuk    宓
fuk    袱
fuk    箙
fuk    菔
fuk    洑
fuk    鍑
fuk    鰒
fuk    鵩
fuk    虙
fuk    蕧
fun    款
fun    寬
fun    歡
fun    髖
fun    窾
fun    臗
fun    驩
fun    嚾
fun    盥
fun    懽
fun    獾
fun    雚
fun    讙
fun    犿
fun    梡
fung   風
fung   豐
fung   峰
fung   鳳
fung   封
fung   奉
fung   鋒
fung   楓
fung   逢
fung   馮
fung   蜂
fung   瘋
fung   覂
fung   縫
fung   丰
fung   捧
fung   蓬
fung   妦
fung   俸
fung   諷
fung   夆
fung   烽
fung   葑
fung   賵
fung   飌
fung   麷
fung   灃
fung   酆
fung   唪
fung   犎
fung   崶
fung   摓
fung   甮
fung   蘴
fung   渢
fut    闊
fut    蛞
gaa    家
gaa    加
gaa    價
gaa    嘉
gaa    架
gaa    假
gaa    賈
gaa    葭
gaa    嫁
gaa    駕
gaa    噶
gaa    傢
gaa    迦
gaa    嘎
gaa    伽
gaa    珈
gaa    鴐
gaa    笳
gaa    稼
gaa    痂
gaa    檟
gaa    尕
gaa    鎵
gaa    榎
gaa    豭
gaa    枷
gaa    犌
gaa    斝
gaa    袈
gaa    嘏
gaa    跏
gaa    耞
gaa    瘕
gaa    椵
gaa    泇
gaa    幏
gaa    癿
gaai   街
gaai   楷
gaai   佳
gaai   皆
gaai   界
gaai   解
gaai   介
gaai   屆
gaai   階
gaai   廨
gaai   疥
gaai   戒
gaai   偕
gaai   尬
gaai   誡
gaai   价
gaai   妎
gaai   懈
gaai   秸
gaai   蚧
gaai   芥
gaai   犗
gaai   蝔
gaai   玠
gaai   檞
gaai   喈
gaai   薢
gaai   痎
gaai   骱
gaai   湝
gaak   格
gaak   鬲
gaak   隔
gaak   革
gaak   鎘
gaak   茖
gaak   膈
gaak   挌
gaak   嗝
gaak   胳
gaak   骼
gaak   觡
gaak   塥
gaak   滆
gaak   愅
gaam   減
gaam   監
gaam   鑑
gaam   鑒
gaam   尷
gaam   緘
gaam   橄
gaam   淦
gaam   椷
gaan   間
gaan   閒
gaan   簡
gaan   鹼
gaan   繭
gaan   諫
gaan   姦
gaan   茧
gaan   奸
gaan   揀
gaan   菅
gaan   柬
gaan   艱
gaan   澗
gaan   堿
gaan   筧
gaan   葌
gaan   蕑
gaan   襉
gaan   襺
gaan   瞷
gaang  更
gaang  逕
gaang  耕
gaang  挭
gaap   甲
gaap   夾
gaap   革
gaap   鉀
gaap   鴿
gaap   蛤
gaap   梜
gaap   頰
gaap   莢
gaap   鞈
gaap   岬
gaap   韐
gaap   搿
gaap   袷
gaap   舺
gaap   郟
gaap   鋏
gaap   蛺
gaap   跲
gaap   筴
gaap   浹
gaap   胛
gaap   裌
gaat   釓
gaat   軋
gaat   戛
gaat   恝
gaau   較
gaau   教
gaau   窖
gaau   校
gaau   交
gaau   覺
gaau   膠
gaau   鵁
gaau   搞
gaau   狡
gaau   絞
gaau   佼
gaau   跤
gaau   郊
gaau   酵
gaau   鉸
gaau   攪
gaau   姣
gaau   皎
gaau   餃
gaau   蛟
gaau   鮫
gaau   茭
gaau   珓
gaau   斠
gaau   筊
gaau   窌
gaau   轇
gaau   滘
gai    計
gai    雞
gai    繼
gai    薊
gai    偈
gai    枅
gai    笄
gai    髻
gai    罽
gai    炔
gai    蟿
gai    蘮
gai    筀
gai    紒
gai    瀱
gam    金
gam    今
gam    感
gam    錦
gam    敢
gam    甘
gam    禁
gam    撳
gam    灨
gam    柑
gam    衿
gam    咁
gam    疳
gam    橄
gam    紺
gam    淦
gam    噤
gam    贛
gam    泔
gam    凎
gam    僸
gam    噉
gam    紟
gam    澉
gan    跟
gan    近
gan    僅
gan    根
gan    緊
gan    謹
gan    筋
gan    斤
gan    巾
gan    瑾
gan    茛
gan    堇
gan    峎
gan    靳
gan    槿
gan    哏
gan    廑
gan    瘽
gan    菫
gan    巹
gan    伒
gan    艮
gan    殣
gan    覲
gan    釿
gan    饉
gan    墐
gan    觔
gang   更
gang   庚
gang   梗
gang   耿
gang   亙
gang   羹
gang   賡
gang   鯁
gang   粳
gang   緪
gang   哽
gang   埂
gang   綆
gang   骾
gang   鶊
gang   郠
gang   堩
gang   浭
gap    及
gap    合
gap    蓋
gap    急
gap    夾
gap    閤
gap    鴿
gap    蛤
gap    岌
gap    芨
gap    郃
gap    頜
gap    峆
gap    忣
gat    吉
gat    吃
gat    虼
gat    佶
gat    桔
gat    咭
gat    疙
gat    訖
gat    趷
gat    姞
gat    紇
gat    肐
gat    趌
gau    九
gau    購
gau    狗
gau    究
gau    久
gau    舊
gau    構
gau    救
gau    夠
gau    龜
gau    溝
gau    句
gau    遘
gau    勾
gau    韝
gau    笱
gau    玖
gau    鉤
gau    鳩
gau    捄
gau    糾
gau    垢
gau    袧
gau    鬮
gau    疚
gau    芶
gau    灸
gau    咎
gau    韭
gau    朻
gau    柩
gau    搆
gau    苟
gau    樛
gau    篝
gau    摎
gau    枸
gau    詬
gau    泃
gau    冓
gau    廄
gau    岣
gau    緱
gau    姤
gau    彀
gau    雊
gau    赳
gau    媾
gau    覯
gau    勼
gau    耇
ge     痂
gei    其
gei    期
gei    機
gei    奇
gei    計
gei    基
gei    技
gei    記
gei    寄
gei    己
gei    紀
gei    幾
gei    既
gei    姬
gei    肌
gei    騎
gei    忌
gei    飢
gei    机
gei    几
gei    蔇
gei    饑
gei    磯
gei    妓
gei    伎
gei    虮
gei    庪
gei    麂
gei    譏
gei    畸
gei    庋
gei    刉
gei    鵋
gei    杞
gei    剞
gei    蟣
gei    洎
gei    箕
gei    嘰
gei    唭