#######################################################################
#                                                                     #
#  poj.cin v0.1, 2005-01-25                                           #
#                                                                     #
# 本poj.cin原始檔案是由劉傑岳 Lâu Kiatgak <kiatgak@yahoo.com.tw>利用     #
# 甘為霖的《廈門音新字典》(Kam Ûi-lîm ê "Ē-mn̄g im ê jī-tián")            #
# (A dictionary of the Amoy vernacury by Willian Campbell)校對、補充後 #
# 的作品本檔案依據 GNU General Public License (GPL) version 2 或新版公開 #
# 授權，歡迎各界散佈及使用。                                             #
# o· 用ou 鼻音用 nn 入聲鼻音用 nnh 表示
#######################################################################
%gen_inp
%ename POJ Reverse Lookup
%cname 閩南語白話字（POJ）反查
%tcname 閩南語白話字（POJ）反查
%scname 闽南语白话字（POJ）反查
%selkey asdfghjkl;
%keyname begin
a a
b b
c c
d d
e e
f f
g g
h h
i i
j j
k k
l l
m m
n n
o o
p p
q q
r r
s s
t t
u u
v v
w w
x x 
y y
z z
1 1
2 2
3 3
4 4
5 5
6 6
7 7
8 8
9 9
0 0
- -
' '
` `
^ ^
= =
| |
%keyname end
%chardef begin
丫 a
抑 a
亞 a
阿 a
啞 a
鴉 a
壓 a
洼 a
椏 a
也 a2
仔 a2
百 a2
阿 a2
亦 a3
亞 a3
啞 a3
婭 a3
掗 a3
限 a7
諾 a7
抑 ah
押 ah
唉 ah
益 ah
鴨 ah
匣 ah8
盒 ah8
哀 ai
唉 ai
埃 ai
挨 ai
毐 ai
靉 ai
矮 ai2
藹 ai2
靄 ai2
毐 ai2
壒 ai2
餲 ai2
呃 ai3
愛 ai3
隘 ai3
噯 ai3
曖 ai3
阨 ai3
僾 ai3
薆 ai3
噯 ai5
唷 ainnh
沃 ak
屋 ak
喔 ak
握 ak
渥 ak
齷 ak
偓 ak
幄 ak
嗌 ak
鋈 ak
鷽 ak
庵 am
腌 am
菴 am
諳 am
鵪 am
唵 am
堷 am
痷 am
腤 am
盦 am
闇 am
黯 am2
泔 am2
淊 am2
晻 am2
菡 am2
暗 am3
闇 am3
蝦 am7
頷 am7
艷 am7
安 an
按 an
鞍 an
侒 an
垵 an
阿 an2
安 an3
按 an3
宴 an3
晏 an3
案 an3
緊 an3
鴳 an3
鷃 an3
公 ang
汪 ang
翁 ang
甕 ang3
塕 ang3
齆 ang3
洪 ang5
紅 ang5
仔 ann2
倚 ann2
攬 ann2
向 ann3
攔 ann5
餡 ann7
押 ap
哈 ap
閘 ap
鴨 ap
壓 ap
姶 ap
匎 ap
唈 ap
廅 ap
霅 ap
盦 ap
齾 ap
合 ap8
匣 ap8
呷 ap8
狎 ap8
柙 ap8
盍 ap8
盒 ap8
嗑 ap8
軋 at
曷 at
遏 at
圠 at
胺 at
堨 at
揠 at
毼 at
頞 at
輵 at
閼 at
凹 au
歐 au
甌 au
坳 au
慪 au
漚 au
熰 au
謳 au
拗 au2
媼 au2
嘔 au2
毆 au2
坳 au2
眑 au2
袎 au2
詏 au2
靿 au2
敺 au2
拗 au3
臭 au3
懊 au3
呼 au5
喉 au5
後 au7
麻 ba5
痲 ba5
貓 ba5
錨 ba5
媌 ba5
蝥 ba5
密 ba7
覓 ba7
痲 ba7
碼 ba7
峇 ba7
鴞 ba7
肉 bah
屄 bai
惡 bai2
眉 bai5
埋 bai5
楣 bai5
霾 bai5
薶 bai5
覓 bai7
汙 bak
染 bak
木 bak8
目 bak8
茉 bak8
密 bak8
漠 bak8
墨 bak8
屘 ban
挽 ban2
滿 ban2
曼 ban5
頑 ban5
閩 ban5
饅 ban5
鰻 ban5
蠻 ban5
鬘 ban5
命 ban7
曼 ban7
萬 ban7
幔 ban7
慢 ban7
漫 ban7
緩 ban7
蔓 ban7
縵 ban7
瓣 ban7
万 ban7
僈 ban7
墁 ban7
嫚 ban7
鄤 ban7
槾 ban7
謾 ban7
濛 bang
罔 bang2
蚊 bang2
網 bang2
忙 bang5
芒 bang5
茫 bang5
矇 bang5
尨 bang5
厖 bang5
哤 bang5
庬 bang5
牻 bang5
駹 bang5
望 bang7
夢 bang7
網 bang7
白 bat
曾 bat
識 bat
木 bat8
密 bat8
墨 bat8
包 bau
卯 bau2
泖 bau2
昴 bau2
矛 bau5
貿 bauh8
藐 bauh8
咪 be
尾 be2
迷 be2
馬 be2
瑪 be2
碼 be2
泥 be5
迷 be5
霉 be5
糜 be5
麛 be5
未 be7
妹 be7
謎 be7
要 beh
乜 beh
脈 beh8
麥 beh8
襪 beh8
貘 bek
糸 bek8
汨 bek8
陌 bek8
脈 bek8
覓 bek8
麥 bek8
貊 bek8
貉 bek8
嘿 bek8
墨 bek8
冪 bek8
默 bek8
謐 bek8
驀 bek8
眽 bek8
絔 bek8
塓 bek8
幎 bek8
覛 bek8
嫫 bek8
鼏 bek8
幦 bek8
嚜 bek8
霢 bek8
羃 bek8
礣 bek8
纆 bek8
名 beng
皿 beng2
孟 beng2
茗 beng2
猛 beng2
酩 beng2
艋 beng2
蜢 beng2
慏 beng2
杗 beng5
明 beng5
盲 beng5
冥 beng5
萌 beng5
盟 beng5
暝 beng5
銘 beng5
鳴 beng5
瞑 beng5
甍 beng5
螟 beng5
甿 beng5
洺 beng5
嫇 beng5
幎 beng5
溟 beng5
蓂 beng5
儚 beng5
覭 beng5
命 beng7
孟 beng7
蜢 beng7
瞢 beng7
扒 bi
咪 bi
迷 bi
微 bi
詺 bi
米 bi2
尾 bi2
羋 bi2
咩 bi2
弭 bi2
美 bi2
娓 bi2
敉 bi2
彌 bi2
靡 bi2
瀰 bi2
眯 bi2
渼 bi2
媺 bi2
瘰 bi2
禰 bi2
亹 bi2
眉 bi5
寐 bi5
湄 bi5
微 bi5
楣 bi5
彌 bi5
糜 bi5
薇 bi5
麋 bi5
瀰 bi5
黴 bi5
冞 bi5
眯 bi5
堳 bi5
嵋 bi5
郿 bi5
溦 bi5
縻 bi5
獼 bi5
劘 bi5
蘪 bi5
蘼 bi5
醾 bi5
未 bi7
味 bi7
泳 bi7
媚 bi7
寐 bi7
謎 bi7
菋 bi7
嚜 bi7
免 bian2
沔 bian2
勉 bian2
娩 bian2
冕 bian2
湎 bian2
鈣 bian2
愍 bian2
緬 bian2
丏 bian2
俛 bian2
眄 bian2
浼 bian2
愐 bian2
絻 bian2
鮸 bian2
眠 bian5
棉 bian5
綿 bian5
瞑 bian5
聯 bian5
窅 bian5
緡 bian5
蝒 bian5
櫋 bian5
面 bian7
偭 bian7
湎 bian7
緬 bian7
麵 bian7
眄 bian7
愐 bian7
苜 biat8
滅 biat8
蔑 biat8
篾 biat8
襪 biat8
搣 biat8
幭 biat8
礣 biat8
蠛 biat8
衊 biat8
杳 biau2
杪 biau2
眇 biau2
秒 biau2
渺 biau2
緲 biau2
藐 biau2
邈 biau2
窅 biau2
窔 biau2
淼 biau2
皛 biau2
龘 biau2
苗 biau5
描 biau5
貓 biau5
錨 biau5
媌 biau5
薸 biau5
妙 biau7
廟 biau7
玅 biau7
匿 bih
篾 bih8
抿 bin2
泯 bin2
敏 bin2
湎 bin2
湣 bin2
閔 bin2
愍 bin2
憫 bin2
澠 bin2
麵 bin2
刡 bin2
敃 bin2
笢 bin2
黽 bin2
僶 bin2
潣 bin2
緡 bin2
平 bin5
民 bin5
岷 bin5
明 bin5
氓 bin5
玟 bin5
眠 bin5
湣 bin5
饅 bin5
忞 bin5
旻 bin5
敃 bin5
苠 bin5
罠 bin5
暋 bin5
痻 bin5
緡 bin5
面 bin7
饅 bin7
蝒 bin7
描 bio5
摹 bio5
廟 bio7
密 bit8
蜜 bit8
沕 bit8
宓 bit8
苾 bit8
榓 bit8
蔤 bit8
蠠 bit8
繆 biu7
謬 biu7
嬤 bo2
無 bo5
帽 bo7
磨 bo7
勞 boa5
磨 boa5
僗 boa5
末 boah
末 boah8
抹 boah8
薘 boah8
娩 boan2
挽 boan2
捲 boan2
晚 boan2
滿 boan2
輓 boan2
懣 boan2
鏝 boan2
鞔 boan2
瞞 boan5
蹣 boan5
悗 boan5
慲 boan5
璊 boan5
鞔 boan5
顢 boan5
凡 boan7
抹 boat
末 boat8
沬 boat8
茉 boat8
苜 boat8
秣 boat8
妺 boat8
靺 boat8
媒 boe2
買 boe2
梅 boe5
煤 boe5
糜 boe5
囮 boe5
不 boe7
秣 boe7
賣 boe7
莫 boh8
匹 bok8
木 bok8
目 bok8
沐 bok8
牧 bok8
苜 bok8
莫 bok8
睦 bok8
貉 bok8
寞 bok8
幕 bok8
摸 bok8
漠 bok8
嘿 bok8
膜 bok8
穆 bok8
繆 bok8
蟆 bok8
毣 bok8
婺 bok8
楘 bok8
嗼 bok8
塻 bok8
幙 bok8
慔 bok8
瞀 bok8
暯 bok8
霂 bok8
瘼 bok8
瞙 bok8
鏌 bok8
鶩 bok8
汒 bon2
摸 bong
孟 bong2
罔 bong2
惘 bong2
莽 bong2
網 bong2
輞 bong2
魍 bong2
网 bong2
菵 bong2
鉧 bong2
漭 bong2
幪 bong2
蠓 bong2
邙 bong3
亡 bong5
忙 bong5
忘 bong5
杗 bong5
芒 bong5
盲 bong5
茫 bong5
望 bong5
蒙 bong5
螂 bong5
濛 bong5
朦 bong5
檬 bong5
矇 bong5
汒 bong5
甿 bong5
罞 bong5
莔 bong5
硭 bong5
雺 bong5
鋩 bong5
鄳 bong5
幪 bong5
曚 bong5
礞 bong5
艨 bong5
蘉 bong5
蠓 bong5
饛 bong5
鸏 bong5
妄 bong7
望 bong7
墓 bong7
夢 bong7
甍 bong7
懵 bong7
朢 bong7
丘 bou2
母 bou2
呆 bou2
牡 bou2
妻 bou2
姆 bou2
拇 bou2
姥 bou2
某 bou2
畝 bou2
婦 bou2
嫫 bou3
毋 bou5
牟 bou5
眸 bou5
摸 bou5
漠 bou5
摹 bou5
模 bou5
膜 bou5
謀 bou5
蟆 bou5
謨 bou5
侔 bou5
蛑 bou5
蝥 bou5
髳 bou5
鍪 bou5
麰 bou5
譕 bou5
戊 bou7
茂 bou7
候 bou7
莫 bou7
貿 bou7
募 bou7
墓 bou7
幕 bou7
慕 bou7
摹 bou7
懋 bou7
袤 bou7
楙 bou7
幙 bou7
慔 bou7
瞀 bou7
鄮 bou7
毋 bu2
母 bu2
牡 bu2
拇 bu2
武 bu2
侮 bu2
舞 bu2
嫵 bu2
憮 bu2
撫 bu2
鵡 bu2
碔 bu2
廡 bu2
潕 bu2
橆 bu2
膴 bu2
甒 bu2
毋 bu5
巫 bu5
無 bu5
誣 bu5
憮 bu5
蕪 bu5
旡 bu5
幠 bu5
廡 bu5
橆 bu5
譕 bu5
務 bu7
噴 bu7
矇 bu7
霧 bu7
騖 bu7
婺 bu7
雺 bu7
蓩 bu7
歕 bu7
鶩 bu7
微 bui
刎 bun2
吻 bun2
抆 bun2
蚊 bun2
捫 bun2
呡 bun2
歾 bun2
暪 bun2
蚊 bun3
文 bun5
汶 bun5
玟 bun5
門 bun5
們 bun5
紋 bun5
捫 bun5
閔 bun5
雯 bun5
聞 bun5
旻 bun5
璊 bun5
魰 bun5
穈 bun5
閺 bun5
閿 bun5
亹 bun5
分 bun7
文 bun7
免 bun7
抆 bun7
汶 bun7
們 bun7
紊 bun7
問 bun7
悶 bun7
聞 bun7
懣 bun7
殙 bun7
絻 bun7
蝒 bun7
閺 bun7
閿 bun7
璺 bun7
末 but
勿 but8
沒 but8
歿 but8
物 but8
岉 but8
沕 but8
歾 but8
芴 but8
莈 but8
咱 cha
查 cha
喳 cha
渣 cha
抯 cha
挓 cha
柤 cha
楂 cha
溠 cha
槎 cha
樝 cha
皻 cha
蹅 cha
謯 cha
齇 cha
早 cha2
乍 cha3
咋 cha3
祚 cha3
詐 cha3
榨 cha3
厏 cha3
怍 cha3
苲 cha3
痄 cha3
鮓 cha3
醡 cha3
乍 cha7
昨 cha7
蚱 cha7
鮓 cha7
卡 chah8
閘 chah8
截 chah8
才 chai
災 chai
知 chai
哉 chai
栽 chai
齊 chai
擠 chai
齋 chai
菑 chai
賳 chai
嚌 chai
巀 chai
滓 chai2
再 chai3
哉 chai3
債 chai3
載 chai3
榨 chai3
才 chai5
材 chai5
財 chai5
裁 chai5
臍 chai5
在 chai7
財 chai7
載 chai7
豸 chai7
廌 chai7
怎 chainn2
指 chainn2
宰 chainn2
滓 chainn2
載 chainn2
胏 chainn2
笫 chainn2
崽 chainn2
縡 chainn2
儦 chainn2
齪 chak
族 chak8
簪 cham
臢 cham
喒 cham
斬 cham2
昝 cham2
寁 cham2
喒 cham2
噆 cham2
蘸 cham3
巉 cham5
站 cham7
斬 cham7
塹 cham7
賺 cham7
鏨 cham7
詀 cham7
槧 cham7
曾 chan
罾 chan
盞 chan2
琖 chan2
醆 chan2
儹 chan2
站 chan3
棧 chan3
層 chan3
贊 chan3
瓚 chan3
讚 chan3
揝 chan3
囋 chan3
攢 chan3
灒 chan3
酇 chan3
禶 chan3
纘 chan3
躦 chan3
刺 chan5
殘 chan5
層 chan5
戔 chan5
贊 chan7
棕 chang
鬃 chang
艐 chang
騣 chang
總 chang2
鬃 chang2
粽 chang3
綜 chang3
叢 chang5
藂 chang5
欉 chang5
斬 chann2
整 chann2
十 chap8
卡 chap8
拾 chap8
雜 chap8
磼 chap8
扎 chat
匝 chat
札 chat
砸 chat
紮 chat
節 chat
咂 chat
抸 chat
唼 chat
蚻 chat
嘁 chat
巀 chat
囋 chat
寂 chat8
賊 chat8
實 chat8
寔 chat8
焦 chau
糟 chau
燋 chau
蹧 chau
走 chau2
草 chau2
蚤 chau2
笊 chau2
蚧 chau2
灶 chau3
奏 chau3
巢 chau5
剿 chau5
勦 chau5
漅 chau5
窲 chau5
轈 chau5
找 chau7
桌 chau7
掉 chau7
棹 chau7
櫂 chau7
淖 chau7
寂 chauh8
查 che
這 che
掣 che
渣 che
儕 che
劑 che
擠 che
臍 che
躋 che
懠 che
隮 che
櫅 che
齎 che
虀 che
齏 che
姊 che2
這 che2
擠 che2
濟 che2
薺 che2
泲 che2
癠 che2
鱭 che2
制 che3
祭 che3
債 che3
歲 che3
製 che3
際 che3
緻 che3
擠 che3
濟 che3
躋 che3
霽 che3
晢 che3
漈 che3
瘵 che3
穄 che3
簀 che3
隮 che3
穧 che3
齊 che5
臍 che5
嚌 che5
懠 che5
櫅 che5
癠 che5
艩 che5
蠐 che5
坐 che7
罪 che7
寨 che7
睡 che7
砦 che7
仄 cheh
績 cheh
絕 cheh8
仄 chek
即 chek
叔 chek
咋 chek
炙 chek
柞 chek
借 chek
窄 chek
脊 chek
隻 chek
窒 chek
蚱 chek
責 chek
勣 chek
跡 chek
嘖 chek
摭 chek
稷 chek
磧 chek
積 chek
燭 chek
績 chek
藉 chek
蹟 chek
鯽 chek
躓 chek
乇 chek
尐 chek
厏 chek
岝 chek
昃 chek
庢 chek
挃 chek
迮 chek
堲 chek
揤 chek
桎 chek
畟 chek
楖 chek
秷 chek
舴 chek
崱 chek
跖 chek
塉 chek
蝍 chek
幘 chek
銍 chek
踖 chek
簀 chek
螲 chek
蹐 chek
賾 chek
蹠 chek
騭 chek
鶺 chek
魙 chek
柞 chek8
疾 chek8
嫉 chek8
賊 chek8
瘠 chek8
鯽 chek8
籍 chek8
耤 chek8
蒺 chek8
簎 chek8
蠈 chek8
寂 chek88
正 cheng
征 cheng
怔 cheng
爭 cheng
政 cheng
牲 cheng
貞 cheng
偵 cheng
崢 cheng
旌 cheng
猙 cheng
舂 cheng
晶 cheng
曾 cheng
菁 cheng
楨 cheng
睛 cheng
睜 cheng
僧 cheng
禎 cheng
箏 cheng
精 cheng
蒸 cheng
蜻 cheng
增 cheng
憎 cheng
衝 cheng
諍 cheng
錚 cheng
鍾 cheng
繒 cheng
鐘 cheng
姃 cheng
烝 cheng
眐 cheng
脀 cheng
湞 cheng
琤 cheng
鉦 cheng
箐 cheng
綪 cheng
噌 cheng
箵 cheng
鄫 cheng
橧 cheng
赬 cheng
甑 cheng
矰 cheng
磳 cheng
罾 cheng
鶄 cheng
騬 cheng
鼱 cheng
鬙 cheng
井 cheng2
腫 cheng2
種 cheng2
整 cheng2
丼 cheng2
殄 cheng2
晸 cheng2
煄 cheng2
正 cheng3
政 cheng3
症 cheng3
掙 cheng3
眾 cheng3
証 cheng3
種 cheng3
諍 cheng3
薦 cheng3
證 cheng3
眐 cheng3
前 cheng5
情 cheng5
晴 cheng5
曾 cheng5
層 cheng5
嶒 cheng5
阱 cheng7
淨 cheng7
睜 cheng7
靖 cheng7
增 cheng7
靜 cheng7
繒 cheng7
贈 cheng7
凈 cheng7
婧 cheng7
竫 cheng7
靚 cheng7
甑 cheng7
蹭 cheng7
泚 chh2
叉 chha
岔 chha
差 chha
蹉 chha
扠 chha
汊 chha
杈 chha
茈 chha
嗏 chha
溠 chha
艖 chha
吵 chha2
炒 chha2
吒 chha3
吵 chha3
鈔 chha3
詫 chha3
侘 chha3
衩 chha3
瘥 chha3
材 chha5
查 chha5
柴 chha5
茶 chha5
荼 chha5
搽 chha5
薪 chha5
秅 chha5
喍 chha5
吵 chha7
插 chhah
鍤 chhah
猜 chhai
釵 chhai
杈 chhai
偲 chhai
啋 chhai
采 chhai2
彩 chhai2
採 chhai2
睬 chhai2
綵 chhai2
寀 chhai2
棌 chhai2
跴 chhai2
采 chhai3
菜 chhai3
蔡 chhai3
埰 chhai3
瘵 chhai3
縩 chhai3
蠆 chhai3
才 chhai5
材 chhai5
柴 chhai5
豺 chhai5
財 chhai5
裁 chhai5
儕 chhai5
纔 chhai5
祡 chhai5
在 chhai7
祀 chhai7
彩 chhainn2
襯 chhainn3
鑿 chhak8
參 chham
摻 chham
墋 chham
嵾 chham
欃 chham
驂 chham
慘 chham2
朁 chham2
噆 chham2
憯 chham2
磣 chham2
黲 chham2
懺 chham3
讖 chham3
嶄 chham5
慚 chham5
漸 chham5
毚 chham5
儳 chham5
巉 chham5
攙 chham5
蠶 chham5
讒 chham5
饞 chham5
蚕 chham5
獑 chham5
磛 chham5
劖 chham5
嚵 chham5
瀺 chham5
欃 chham5
鑱 chham5
孱 chhan
潺 chhan
餐 chhan
僝 chhan
羼 chhan2
殘 chhan3
綻 chhan3
燦 chhan3
璨 chhan3
櫬 chhan3
粲 chhan3
田 chhan5
孱 chhan5
蜻 chhan5
襯 chhan5
聰 chhang
插 chhap
扱 chhap
臿 chhap
偛 chhap
喢 chhap
歃 chhap
鍤 chhap
囃 chhap
察 chhat
漆 chhat
擦 chhat
攃 chhat
礤 chhat
賊 chhat8
抄 chhau
鈔 chhau
勦 chhau
操 chhau
耖 chhau
訬 chhau
樔 chhau
謅 chhau
口 chhau2
吵 chhau2
炒 chhau2
草 chhau2
稍 chhau2
楚 chhau2
頭 chhau2
謅 chhau2
臭 chhau3
湊 chhau3
鈔 chhau3
沓 chhauh8
叉 chhe
吹 chhe
妻 chhe
炊 chhe
差 chhe
悽 chhe
淒 chhe
棲 chhe
萋 chhe
汊 chhe
凄 chhe
栖 chhe
郪 chhe
緀 chhe
霋 chhe
扯 chhe2
髓 chhe2
抯 chhe2
泚 chhe2
玼 chhe2
撦 chhe2
切 chhe3
妻 chhe3
砌 chhe3
脆 chhe3
悽 chhe3
淋 chhe3
廁 chhe3
箠 chhe5
坐 chhe7
尋 chhe7
冊 chheh
啜 chheh
撮 chheh
尺 chhek
冊 chhek
赤 chhek
刺 chhek
坼 chhek
拆 chhek
促 chhek
柵 chhek
柒 chhek
側 chhek
戚 chhek
雀 chhek
惻 chhek
測 chhek
策 chhek
粟 chhek
漆 chhek
慼 chhek
膝 chhek
蹙 chhek
觸 chhek
彳 chhek
拺 chhek
畟 chhek
茦 chhek
蚇 chhek
桼 chhek
斮 chhek
莿 chhek
筴 chhek
鏚 chhek
顣 chhek
鶒 chhek
摶 chhek8
簎 chhek8
千 chheng
青 chheng
掙 chheng
清 chheng
傖 chheng
菁 chheng
稱 chheng
蜻 chheng
親 chheng
鯖 chheng
圊 chheng
棦 chheng
綪 chheng
靘 chheng
赬 chheng
檉 chheng
蟶 chheng
鶄 chheng
逞 chheng2
筅 chheng2
倩 chheng3
秤 chheng3
稱 chheng3
凊 chheng3
婧 chheng3
掅 chheng3
渹 chheng3
銃 chheng3
靘 chheng3
擤 chheng3
松 chheng5
倀 chheng5
榕 chheng5
趟 chheng5
蠶 chheng5
蚕 chheng5
棖 chheng5
橕 chheng5
穿 chheng7
請 chhheng2
差 chhi
蚩 chhi
啻 chhi
嗤 chhi
嵯 chhi
痴 chhi
腮 chhi
蹉 chhi
颺 chhi
癡 chhi
鰓 chhi
胵 chhi
眵 chhi
偨 chhi
瓻 chhi
媸 chhi
鴟 chhi
齝 chhi
鑐 chhi
侈 chhi2
齒 chhi2
阤 chhi2
哆 chhi2
奓 chhi2
姼 chhi2
恀 chhi2
欼 chhi2
誃 chhi2
尸 chhi3
刺 chhi3
翅 chhi3
試 chhi3
幟 chhi3
熾 chhi3
織 chhi3
朿 chhi3
忮 chhi3
茦 chhi3
蚝 chhi3
莿 chhi3
蛓 chhi3
翨 chhi3
饎 chhi3
持 chhi5
徐 chhi5
市 chhi7
飼 chhi7
吒 chhia
車 chhia
奢 chhia
推 chhia
硨 chhia
譇 chhia
扯 chhia2
哆 chhia2
撦 chhia2
斜 chhia3
斜 chhia5
赤 chhiah
刺 chhiah
側 chhiah
尖 chhiam
參 chhiam
簽 chhiam
殲 chhiam
籤 chhiam
纖 chhiam
笘 chhiam
詀 chhiam
僉 chhiam
裧 chhiam
幨 chhiam
憸 chhiam
襜 chhiam
襝 chhiam
鐱 chhiam
襳 chhiam
鐕 chhiam2
僭 chhiam3
僣 chhiam3
蒨 chhiam3
潛 chhiam5
鑱 chhiam5
千 chhian
仟 chhian
阡 chhian
遷 chhian
韆 chhian
扦 chhian
芊 chhian
燀 chhian
褼 chhian
櫏 chhian
躚 chhian
淺 chhian2
錢 chhian2
闡 chhian2
幝 chhian2
諓 chhian2
殫 chhian2
繟 chhian2
譂 chhian2
倩 chhian3
芊 chhian3
栫 chhian3
茜 chhian3
蒨 chhian3
輤 chhian3
田 chhian5
延 chhian5
鎗 chhiang
冗 chhiang2
唱 chhiang3
常 chhiang5
腸 chhiang5
橙 chhiang5
償 chhiang5
清 chhiann
且 chhiann2
搶 chhiann2
請 chhiann2
抯 chhiann2
倩 chhiann3
成 chhiann5
妾 chhiap
眨 chhiap
竊 chhiap
唼 chhiap
啑 chhiap
椄 chhiap
翣 chhiap
踥 chhiap
切 chhiat
沏 chhiat
跕 chhiat
超 chhiau
搜 chhiau
鍬 chhiau
怊 chhiau
摶 chhiau
幧 chhiau
悄 chhiau2
愀 chhiau2
稍 chhiau2
眧 chhiau2
笑 chhiau3
偢 chhiau3
鍬 chhiau5
閃 chhih
扼 chhih8
蠽 chhih8
侵 chhim
深 chhim
寢 chhim
唚 chhim
祲 chhim
綅 chhim
駸 chhim
侵 chhim2
尋 chhim2
寢 chhim2
梫 chhim2
鋟 chhim2
踸 chhim2
贂 chhim2
譖 chhim3
潛 chhim5
鑱 chhim5
人 chhin
新 chhin
親 chhin
儭 chhin
齔 chhin2
且 chhin3
秤 chhin3
櫬 chhin3
襯 chhin3
凊 chhin3
儭 chhin3
嚫 chhin3
生 chhinn
青 chhinn
星 chhinn
悽 chhinn
清 chhinn
菁 chhinn
睛 chhinn
腥 chhinn
親 chhinn
鮮 chhinn
蘚 chhinn
淺 chhinn2
醒 chhinn2
哨 chhio
笑 chhio3
蟯 chhio5
照 chhio7
尺 chhioh
跡 chhioh
螫 chhioh
蹟 chhioh
臅 chhioh
蓆 chhioh8
促 chhiok
斫 chhiok
捉 chhiok
雀 chhiok
綽 chhiok
數 chhiok
槭 chhiok
歜 chhiok
蹙 chhiok
蹴 chhiok
鵲 chhiok
觸 chhiok
齪 chhiok
矗 chhiok
亍 chhiok
汋 chhiok
俶 chhiok
哫 chhiok
娖 chhiok
娕 chhiok
浞 chhiok
婥 chhiok
梀 chhiok
淖 chhiok
觕 chhiok
婼 chhiok
斮 chhiok
棤 chhiok
焯 chhiok
傶 chhiok
皵 chhiok
碏 chhiok
摵 chhiok
蜡 chhiok
踀 chhiok
噈 chhiok
踔 chhiok
擉 chhiok
磭 chhiok
篧 chhiok
斶 chhiok
臅 chhiok
灂 chhiok
顣 chhiok
穱 chhiok
齱 chhiok
摶 chhiok8
充 chhiong
沖 chhiong
昌 chhiong
倡 chhiong
將 chhiong
從 chhiong
猖 chhiong
傭 chhiong
嗆 chhiong
愴 chhiong
槍 chhiong
憧 chhiong
樅 chhiong
衝 chhiong
縱 chhiong
鎗 chhiong
鏘 chhiong
鯧 chhiong
忡 chhiong
斨 chhiong
珫 chhiong
茺 chhiong
浺 chhiong
菖 chhiong
摐 chhiong
牄 chhiong
瑲 chhiong
裮 chhiong
憃 chhiong
瑽 chhiong
蓯 chhiong
閶 chhiong
蹌 chhiong
蹡 chhiong
鏦 chhiong
鶬 chhiong
悚 chhiong2
敞 chhiong2
搶 chhiong2
廠 chhiong2
慫 chhiong2
氅 chhiong2
縱 chhiong2
聳 chhiong2
昶 chhiong2
竦 chhiong2
傸 chhiong2
磢 chhiong2
倡 chhiong3
笑 chhiong3
唱 chhiong3
從 chhiong3
淌 chhiong3
縱 chhiong3
揰 chhiong3
銃 chhiong3
瘲 chhiong3
戕 chhiong5
檣 chhiong5
牆 chhiong5
薔 chhiong5
嬙 chhiong5
廧 chhiong5
蘠 chhiong5
墻 chhiong5
匠 chhiong7
趟 chhiong7
揖 chhip
戢 chhip
楫 chhip
緝 chhip
輯 chhip
咠 chhip
偮 chhip
桼 chhip
湒 chhip
葺 chhip
濈 chhip
諿 chhip
蕺 chhip
蹐 chhip
霵 chhip
七 chhit
拭 chhit
柒 chhit
漆 chhit
嚙 chhit
囓 chhit
抽 chhiu
秋 chhiu
啾 chhiu
愀 chhiu
鞦 chhiu
鰍 chhiu
鬚 chhiu
湫 chhiu
搊 chhiu
楸 chhiu
煪 chhiu
萩 chhiu
瞅 chhiu
僽 chhiu
緧 chhiu
鶖 chhiu
手 chhiu2
帚 chhiu2
首 chhiu2
醜 chhiu2
皺 chhiu3
縐 chhiu3
偢 chhiu3
甃 chhiu3
簉 chhiu3
愀 chhiu5
揪 chhiu5
愁 chhiu5
揫 chhiu5
詶 chhiu5
楊 chhiu7
樹 chhiu7
匠 chhiunn
象 chhiunn
鎗 chhiunn
鯧 chhiunn
菖 chhiunn
取 chhiunn2
廠 chhiunn2
唱 chhiunn3
揖 chhiunn3
牆 chhiunn5
颺 chhiunn5
蘠 chhiunn5
墻 chhiunn5
畜 chhiunn7
象 chhiunn7
像 chhiunn7
橡 chhiunn7
村 chhng
穿 chhng
倉 chhng
栓 chhng
瘡 chhng
艙 chhng
串 chhng3
穿 chhng3
竄 chhng3
嵯 chho
搓 chho
磋 chho
銼 chho
操 chho
澡 chho
蹉 chho
瑳 chho
瘥 chho
臊 chho
髊 chho
鹺 chho
草 chho2
楚 chho2
瑣 chho2
艸 chho2
騲 chho2
挫 chho3
造 chho3
銼 chho3
噪 chho3
操 chho3
錯 chho3
糙 chho3
譟 chho3
侳 chho3
剉 chho3
夎 chho3
脞 chho3
莝 chho3
慥 chho3
蓌 chho3
懆 chho3
鄵 chho3
撾 chhoa
檛 chhoa
膼 chhoa
髽 chhoa
聚 chhoa2
蔡 chhoa3
娶 chhoa7
導 chhoa7
擦 chhoah
竊 chhoah
斜 chhoah8
川 chhoan
村 chhoan
佺 chhoan
拴 chhoan
穿 chhoan
栓 chhoan
荃 chhoan
痊 chhoan
釧 chhoan
湍 chhoan
詮 chhoan
雋 chhoan
銓 chhoan
竄 chhoan
顓 chhoan
鐫 chhoan
玔 chhoan
悛 chhoan
牷 chhoan
筌 chhoan
歂 chhoan
煓 chhoan
跧 chhoan
輇 chhoan
鋑 chhoan
鑴 chhoan
喘 chhoan2
歂 chhoan2
舛 chhoan3
串 chhoan3
釧 chhoan3
奧 chhoan3
慣 chhoan3
篡 chhoan3
纂 chhoan3
爨 chhoan3
縓 chhoan3
攛 chhoan3
拴 chhoan5
遄 chhoan5
闖 chhoang
閂 chhoann
癬 chhoann2
閂 chhoann3
鱔 chhoann7
啜 chhoat
最 chhoat
撮 chhoat
蕞 chhoat
蕝 chhoat
歠 chhoat
妻 chhoe
初 chhoe
刷 chhoe3
慼 chhoeh
昔 chhok
厝 chhok
撮 chhok
錯 chhok
簇 chhok
觸 chhok
齪 chhok
剒 chhok
傶 chhok
蔟 chhok
戳 chhok8
鑿 chhok8
匆 chhong
倉 chhong
傖 chhong
創 chhong
窗 chhong
滄 chhong
蒼 chhong
瘡 chhong
蔥 chhong
艙 chhong
聰 chhong
刱 chhong
棇 chhong
戧 chhong
摐 chhong
瑲 chhong
璁 chhong
謒 chhong
鏦 chhong
驄 chhong
鶬 chhong
創 chhong3
愴 chhong3
刱 chhong3
床 chhong5
戕 chhong5
叢 chhong5
藂 chhong5
欉 chhong5
初 chhou
粗 chhou
蹉 chhou
怚 chhou
觕 chhou
麤 chhou
楚 chhou2
趣 chhou2
礎 chhou2
儊 chhou2
濋 chhou2
厝 chhou3
措 chhou3
醋 chhou3
錯 chhou3
酢 chhou3
蛆 chhu
嵯 chhu
睢 chhu
雌 chhu
樞 chhu
趨 chhu
雛 chhu
苴 chhu
眥 chhu
趄 chhu
媰 chhu
雎 chhu
鶵 chhu
此 chhu2
取 chhu2
杵 chhu2
處 chhu2
惴 chhu2
訾 chhu2
鼠 chhu2
佌 chhu2
玼 chhu2
茈 chhu2
眥 chhu2
訿 chhu2
跐 chhu2
鮆 chhu2
癙 chhu2
次 chhu3
取 chhu3
狙 chhu3
厝 chhu3
娶 chhu3
處 chhu3
趣 chhu3
朿 chhu3
佽 chhu3
庛 chhu3
蛓 chhu3
儊 chhu3
覷 chhu3
疵 chhu5
訾 chhu5
庛 chhu5
茈 chhu5
眥 chhu5
訿 chhu5
娶 chhu7
焠 chhuh
吹 chhui
炊 chhui
崔 chhui
推 chhui
催 chhui
蓷 chhui
取 chhui2
揣 chhui2
髓 chhui2
瀡 chhui2
口 chhui3
吹 chhui3
脆 chhui3
碎 chhui3
翠 chhui3
翡 chhui3
嘴 chhui3
啐 chhui3
崒 chhui3
毳 chhui3
焠 chhui3
脺 chhui3
膬 chhui3
竁 chhui3
伸 chhun
村 chhun
春 chhun
鶉 chhun
蠢 chhun
杶 chhun
椿 chhun
鰆 chhun
寸 chhun2
忖 chhun2
舛 chhun2
春 chhun2
喘 chhun2
刌 chhun2
荈 chhun2
偆 chhun2
賰 chhun2
踳 chhun2
寸 chhun3
存 chhun5
出 chhut
齣 chhut
之 chi
支 chi
肌 chi
吱 chi
枝 chi
肢 chi
芝 chi
胝 chi
祗 chi
脂 chi
梔 chi
質 chi
秖 chi
胑 chi
疻 chi
搘 chi
榰 chi
子 chi2
止 chi2
水 chi2
只 chi2
旨 chi2
址 chi2
姐 chi2
姊 chi2
抵 chi2
芷 chi2
咫 chi2
指 chi2
祉 chi2
砥 chi2
紙 chi2
趾 chi2
紫 chi2
厎 chi2
忯 chi2
沚 chi2
阯 chi2
坻 chi2
呰 chi2
枳 chi2
疻 chi2
秭 chi2
畤 chi2
笫 chi2
軹 chi2
黹 chi2
薾 chi2
至 chi3
志 chi3
痣 chi3
輊 chi3
誌 chi3
幟 chi3
摯 chi3
織 chi3
識 chi3
躓 chi3
忮 chi3
覟 chi3
鋕 chi3
懫 chi3
贄 chi3
騺 chi3
鷙 chi3
薺 chi5
餈 chi5
鶿 chi5
巳 chi7
是 chi7
舐 chi7
這 chia
嗟 chia
嵯 chia
遮 chia
罝 chia
菹 chia
姐 chia2
者 chia2
赭 chia2
媎 chia2
乍 chia3
炙 chia3
借 chia3
摭 chia3
蔗 chia3
藉 chia3
鷓 chia3
柘 chia3
唶 chia3
耤 chia3
褯 chia3
謝 chia7
藉 chia7
即 chiah
脊 chiah
隻 chiah
睫 chiah
跡 chiah
諸 chiah
蹟 chiah
炙 chiah8
食 chiah8
占 chiam
尖 chiam
佔 chiam
針 chiam
詹 chiam
漸 chiam
瞻 chiam
簪 chiam
譫 chiam
蛅 chiam
颭 chiam
熸 chiam
鍼 chiam
瀸 chiam
鑯 chiam
枕 chiam2
占 chiam3
佔 chiam3
譖 chiam3
潛 chiam5
朁 chiam5
燂 chiam5
燖 chiam5
灊 chiam5
漸 chiam7
暫 chiam7
魙 chiam7
沮 chian
湔 chian
煎 chian
箋 chian
氈 chian
羶 chian
顫 chian
戔 chian
旃 chian
栴 chian
媊 chian
揃 chian
牋 chian
亶 chian
諓 chian
邅 chian
饘 chian
籛 chian
驙 chian
鱣 chian
鸇 chian
剪 chian2
煎 chian2
踐 chian2
錢 chian2
餞 chian2
俴 chian2
揃 chian2
戩 chian2
翦 chian2
諓 chian2
臇 chian2
皽 chian2
蟫 chian2
鬋 chian2
籛 chian2
譾 chian2
荐 chian3
棧 chian3
湔 chian3
煎 chian3
箭 chian3
戰 chian3
薦 chian3
顫 chian3
洊 chian3
牮 chian3
榗 chian3
輚 chian3
樿 chian3
虥 chian3
轏 chian3
瀳 chian3
前 chian5
湔 chian5
錢 chian5
媊 chian5
葥 chian5
賤 chian7
踐 chian7
濺 chian7
葥 chian7
張 chiang
漳 chiang
長 chiang2
掌 chiang2
槳 chiang2
獎 chiang2
將 chiang3
賬 chiang3
正 chiann
赤 chiann
弱 chiann2
正 chiann3
成 chiann5
情 chiann5
汁 chiap
浹 chiap
接 chiap
睫 chiap
摺 chiap
諸 chiap
聶 chiap
倢 chiap
啑 chiap
婕 chiap
眹 chiap
蜨 chiap
捷 chiap8
折 chiat
浙 chiat
睫 chiat
節 chiat
櫛 chiat
尐 chiat
岊 chiat
揤 chiat
晢 chiat
楶 chiat
癤 chiat
捷 chiat8
蜇 chiat8
閘 chiat8
截 chiat8
婕 chiat8
寁 chiat8
箑 chiat8
巀 chiat8
蠽 chiat8
招 chiau
昭 chiau
炤 chiau
釗 chiau
椒 chiau
焦 chiau
蕉 chiau
礁 chiau
弨 chiau
鉊 chiau
僬 chiau
嶕 chiau
燋 chiau
膲 chiau
鐎 chiau
鷦 chiau
姐 chiau2
沼 chiau2
鳥 chiau2
屌 chiau2
煍 chiau2
屪 chiau2
炤 chiau3
詔 chiau3
照 chiau3
醮 chiau3
劁 chiau3
釂 chiau3
全 chiau5
憔 chiau5
樵 chiau5
礁 chiau5
譙 chiau5
醮 chiau5
劁 chiau5
瞧 chiau9
哳 chiauh8
接 chih
摺 chih
舌 chih8
折 chih8
砧 chim
針 chim
湛 chim
斟 chim
箴 chim
簪 chim
唚 chim
揕 chim
椹 chim
瑊 chim
碪 chim
鍼 chim
鱵 chim
枕 chim2
怎 chim2
偺 chim2
嬸 chim2
噂 chim2
枕 chim3
浸 chim3
寖 chim3
綅 chim3
譖 chim3
蟳 chim5
升 chin
津 chin
珍 chin
振 chin
真 chin
清 chin
榛 chin
甄 chin
瞋 chin
縝 chin
臻 chin
侲 chin
嗔 chin
溱 chin
瑱 chin
蓁 chin
禛 chin
璡 chin
薽 chin
鬒 chin
拯 chin2
振 chin2
疹 chin2
診 chin2
趁 chin2
賑 chin2
儘 chin2
縝 chin2
沴 chin2
挋 chin2
殄 chin2
胗 chin2
畛 chin2
眕 chin2
紾 chin2
袗 chin2
軫 chin2
黰 chin2
晉 chin3
進 chin3
賑 chin3
震 chin3
縉 chin3
侲 chin3
搢 chin3
鄑 chin3
榗 chin3
璡 chin3
秦 chin5
繩 chin5
螓 chin5
盡 chin7
儘 chin7
燼 chin7
賮 chin7
濜 chin7
藎 chin7
贐 chin7
爭 chinn
晶 chinn
精 chinn
氈 chinn
井 chinn2
幼 chinn2
鴿 chinn2
茈 chinn2
箭 chinn3
搢 chinn3
前 chinn5
晴 chinn5
錢 chinn5
簷 chinn5
靜 chinn7
招 chio
椒 chio
蕉 chio
少 chio2
照 chio3
醮 chio3
斫 chioh
借 chioh
績 chioh
焟 chioh
石 chioh8
勺 chiok
妁 chiok
杓 chiok
灼 chiok
芍 chiok
足 chiok
斫 chiok
祝 chiok
酌 chiok
粥 chiok
歜 chiok
燭 chiok
爵 chiok
繳 chiok
嚼 chiok
躅 chiok
屬 chiok
囑 chiok
矚 chiok
彴 chiok
扚 chiok
汋 chiok
柷 chiok
哫 chiok
趵 chiok
喌 chiok
焯 chiok
瘃 chiok
禚 chiok
擉 chiok
踿 chiok
臅 chiok
櫡 chiok
蠋 chiok
爝 chiok
皭 chiok
穱 chiok
鬻 chiok
孎 chiok
釂 chiok
斸 chiok
蠾 chiok
忪 chiong
將 chiong
終 chiong
舂 chiong
章 chiong
彰 chiong
漳 chiong
獐 chiong
樟 chiong
樁 chiong
漿 chiong
璋 chiong
鍾 chiong
鐘 chiong
伀 chiong
吽 chiong
彸 chiong
傽 chiong
墇 chiong
嫜 chiong
慞 chiong
粻 chiong
鄣 chiong
憃 chiong
螿 chiong
螽 chiong
鼨 chiong
鱆 chiong
掌 chiong2
腫 chiong2
種 chiong2
槳 chiong2
獎 chiong2
蔣 chiong2
踵 chiong2
仉 chiong2
偅 chiong2
尰 chiong2
煄 chiong2
鞝 chiong2
中 chiong3
將 chiong3
眾 chiong3
種 chiong3
障 chiong3
瘴 chiong3
醬 chiong3
墇 chiong3
嶂 chiong3
鄣 chiong3
瞕 chiong3
從 chiong5
爿 chiong5
傱 chiong5
狀 chiong7
執 chip
輯 chip
馽 chip
慹 chip
蓻 chip
縶 chip
蟄 chip
謺 chip
寂 chip8
集 chip8
籍 chip8
潗 chip8
即 chit
脊 chit
蛭 chit
摯 chit
質 chit
織 chit
職 chit
鯽 chit
侄 chit
厔 chit
郅 chit
晊 chit
桎 chit
戠 chit
銍 chit
膱 chit
鑕 chit
一 chit8
疾 chit8
嫉 chit8
蒺 chit8
州 chiu
舟 chiu
周 chiu
洲 chiu
啁 chiu
啾 chiu
揪 chiu
週 chiu
侜 chiu
徟 chiu
喌 chiu
揫 chiu
煪 chiu
輈 chiu
蝤 chiu
賙 chiu
輖 chiu
盩 chiu
鵃 chiu
譸 chiu
鰽 chiu
守 chiu2
帚 chiu2
酒 chiu2
咒 chiu3
祝 chiu3
蛀 chiu3
詶 chiu3
蝤 chiu5
就 chiu7
僦 chiu7
鷲 chiu7
章 chiunn
樟 chiunn
漿 chiunn
螿 chiunn
鱆 chiunn
槳 chiunn2
蔣 chiunn2
即 chiunn3
醬 chiunn3
裳 chiunn5
上 chiunn7
癢 chiunn7
妝 chng
莊 chng
裝 chng
庄 chng
粧 chng
指 chng2
鑽 chng3
全 chng5
狀 chng7
藏 chng7
臟 chng7
饌 chng7
早 cho
遭 cho
糟 cho
齋 cho
侳 cho
傮 cho
慒 cho
蹧 cho
左 cho2
抓 cho2
走 cho2
蚤 cho2
棗 cho2
澡 cho2
藻 cho2
皁 cho2
笊 cho2
璅 cho2
璪 cho2
繰 cho2
左 cho3
佐 cho3
灶 cho3
做 cho3
嘈 cho3
皺 cho3
則 cho5
曹 cho5
嘈 cho5
漕 cho5
槽 cho5
皁 cho5
痤 cho5
矬 cho5
艚 cho5
螬 cho5
早 cho7
住 cho7
坐 cho7
座 cho7
做 cho7
造 cho7
道 cho7
嘈 cho7
皁 cho7
夎 cho7
艚 cho7
遭 choa
畷 choa
姐 choa2
紙 choa2
蛇 choa5
誰 choa5
行 choa7
詛 choa7
誓 choa7
泏 choah
差 choah8
蠽 choah8
膗 choai7
耑 choan
專 choan
磚 choan
顓 choan
鑽 choan
剸 choan
嫥 choan
鄟 choan
諯 choan
巑 choan
攢 choan
鱄 choan
躦 choan
剪 choan2
轉 choan2
囀 choan2
爨 choan2
剸 choan2
篡 choan3
鑽 choan3
揝 choan3
攢 choan3
欑 choan3
全 choan5
佺 choan5
泉 choan5
荃 choan5
牷 choan5
僎 choan7
撰 choan7
篹 choan7
譔 choan7
鏇 choan7
饌 choan7
煎 choann
盞 choann2
笊 choann2
泉 choann5
殘 choann5
賤 choann7
濺 choann7
拙 choat
茁 choat
啜 choat
撮 choat
剟 choat
梲 choat
棳 choat
畷 choat
繓 choat
絕 choat8
做 choe3
最 choe3
綴 choe3
贅 choe3
畷 choe3
嘬 choe3
餟 choe3
摧 choe5
齊 choe5
璀 choe5
脧 choe5
凗 choe5
嗺 choe5
漼 choe5
磪 choe5
多 choe7
罪 choe7
蕞 choe7
節 choeh
截 choeh8
作 choh
築 choh
昨 choh8
射 choh8
擲 choh8
作 chok
迮 chok
昨 chok8
柞 chok8
族 chok8
嗾 chok8
醋 chok8
濁 chok8
擢 chok8
濯 chok8
鏃 chok8
怍 chok8
胙 chok8
苲 chok8
酢 chok8
瘯 chok8
鷟 chok8
壯 chong
妝 chong
宗 chong
淙 chong
莊 chong
傖 chong
棕 chong
裝 chong
綜 chong
臧 chong
樁 chong
蹤 chong
鬃 chong
贓 chong
庄 chong
倧 chong
牂 chong
悰 chong
琮 chong
稯 chong
翪 chong
艐 chong
賨 chong
鍐 chong
豵 chong
騣 chong
鬷 chong
粧 chong
傯 chong2
總 chong2
摠 chong2
蓯 chong2
駔 chong2
壯 chong3
葬 chong3
粽 chong3
綜 chong3
髒 chong3
鬷 chong3
崇 chong5
臧 chong5
藏 chong5
狀 chong7
奘 chong7
祟 chong7
臧 chong7
藏 chong7
臟 chong7
且 chou
租 chou
芻 chou
組 chou
陬 chou
鄒 chou
鄹 chou
齟 chou
徂 chou
殂 chou
娵 chou
掫 chou
郰 chou
棷 chou
棸 chou
菆 chou
趄 chou
搊 chou
鉏 chou
緅 chou
僽 chou
諏 chou
篘 chou
謅 chou
鯫 chou
騶 chou
齱 chou
走 chou2
咀 chou2
沮 chou2
阻 chou2
俎 chou2
祖 chou2
組 chou2
詛 chou2
岨 chou2
珇 chou2
跙 chou2
鉏 chou2
瞅 chou2
駔 chou2
麆 chou2
奏 chou3
祚 chou3
湊 chou3
縐 chou3
輳 chou3
簇 chou3
阼 chou3
腠 chou3
蔟 chou3
簉 chou3
助 chou7
驟 chou7
胙 chou7
耡 chou7
麆 chou7
騶 chou7
且 chu
朱 chu
孜 chu
侏 chu
注 chu
沮 chu
狙 chu
咨 chu
姿 chu
書 chu
株 chu
玆 chu
珠 chu
疽 chu
砠 chu
茲 chu
茱 chu
茨 chu
淄 chu
硃 chu
蛆 chu
孳 chu
滋 chu
痘 chu
睢 chu
資 chu
貲 chu
緇 chu
銖 chu
齊 chu
諸 chu
豬 chu
輜 chu
諮 chu
錙 chu
髭 chu
齋 chu
藷 chu
齜 chu
孖 chu
怚 chu
甾 chu
咮 chu
洙 chu
苴 chu
邾 chu
罝 chu
祩 chu
嵫 chu
椔 chu
粢 chu
菹 chu
菑 chu
袾 chu
趑 chu
鉒 chu
雎 chu
蝫 chu
澬 chu
鎡 chu
瀦 chu
櫧 chu
鯔 chu
齍 chu
子 chu2
主 chu2
仔 chu2
拄 chu2
籽 chu2
梓 chu2
渚 chu2
楮 chu2
煮 chu2
紫 chu2
褚 chu2
鋅 chu2
齟 chu2
呰 chu2
耔 chu2
砫 chu2
陼 chu2
翥 chu2
麈 chu2
足 chu3
注 chu3
蛀 chu3
註 chu3
漬 chu3
駐 chu3
積 chu3
鑄 chu3
炷 chu3
倳 chu3
剚 chu3
胾 chu3
胔 chu3
牏 chu3
馵 chu3
澍 chu3
骴 chu3
茨 chu5
瓷 chu5
慈 chu5
磁 chu5
薯 chu5
藷 chu5
喌 chu5
蜍 chu5
餈 chu5
鶿 chu5
蠩 chu5
字 chu7
肉 chu7
自 chu7
住 chu7
柱 chu7
聚 chu7
駐 chu7
胾 chu7
跓 chu7
隹 chui
珠 chui
睢 chui
錐 chui
鎚 chui
厜 chui
脽 chui
萑 chui
觜 chui
嗺 chui
檇 chui
騅 chui
鵻 chui
水 chui2
捶 chui2
嘴 chui2
棰 chui2
醉 chui3
崒 chui3
晬 chui3
檇 chui3
悴 chui7
萃 chui7
誰 chui7
誶 chui7
椊 chui7
膵 chui7
尊 chun
僎 chun
樽 chun
遵 chun
蹲 chun
栫 chun
踆 chun
墫 chun
壿 chun
嶟 chun
繜 chun
鐏 chun
准 chun2
準 chun2
撙 chun2
隼 chun2
僔 chun2
繜 chun2
譐 chun2
鱒 chun2
圳 chun3
俊 chun3
峻 chun3
浚 chun3
皴 chun3
竣 chun3
雋 chun3
諄 chun3
戰 chun3
濬 chun3
駿 chun3
鐫 chun3
悛 chun3
捘 chun3
狻 chun3
迿 chun3
晙 chun3
焌 chun3
逡 chun3
踆 chun3
鋑 chun3
餕 chun3
臇 chun3
存 chun5
前 chun5
船 chun5
蹲 chun5
拵 chun5
洊 chun5
栫 chun5
稕 chun5
瀳 chun5
陣 chun7
轉 chun7
銌 chun7
卒 chut
淬 chut
倅 chut
啐 chut
捽 chut
猝 chut
踤 chut
朮 chut8
卒 chut8
誶 chut8
秫 chut8
崒 chut8
椊 chut8
啃 dip
苛 e
倭 e
萵 e
蒿 e
鍋 e
曳 e3
泄 e3
拽 e3
洩 e3
裔 e3
縊 e3
翳 e3
穢 e3
枻 e3
絏 e3
詍 e3
勩 e3
嫕 e3
靾 e3
曀 e3
殪 e3
繄 e3
黟 e3
饐 e3
蘙 e3
其 e5
暝 e5
丌 e5
亓 e5
下 e7
禍 e7
呃 eh
噫 eh
阨 eh
鬱 eh8
厄 ek
呃 ek
扼 ek
抑 ek
益 ek
啞 ek
軛 ek
意 ek
溢 ek
隘 ek
億 ek
憶 ek
臆 ek
鎰 ek
肐 ek
阨 ek
豟 ek
軶 ek
嗌 ek
搤 ek
圛 ek
艗 ek
檍 ek
謚 ek
繶 ek
鷁 ek
齸 ek
翼 ek3
弋 ek8
亦 ek8
佚 ek8
役 ek8
佾 ek8
易 ek8
奕 ek8
帟 ek8
弈 ek8
疫 ek8
迭 ek8
射 ek8
浴 ek8
掖 ek8
液 ek8
翌 ek8
陸 ek8
畫 ek8
腋 ek8
軼 ek8
逸 ek8
睪 ek8
劃 ek8
蜴 ek8
繹 ek8
譯 ek8
驛 ek8
杙 ek8
帙 ek8
泆 ek8
埸 ek8
翊 ek8
釴 ek8
焲 ek8
趐 ek8
黓 ek8
嶧 ek8
懌 ek8
斁 ek8
瀷 ek8
英 eng
飛 eng
瑛 eng
嬰 eng
應 eng
膺 eng
薨 eng
嚶 eng
罌 eng
馨 eng
櫻 eng
瓔 eng
轟 eng
鶯 eng
纓 eng
鷹 eng
鸚 eng
訇 eng
偀 eng
嫈 eng
賏 eng
霙 eng
甖 eng
攖 eng
蘡 eng
癭 eng
癰 eng
永 eng2
浪 eng2
郢 eng2
景 eng2
湧 eng2
影 eng2
璟 eng2
穎 eng2
潁 eng2
壅 eng3
應 eng3
甕 eng3
盈 eng5
間 eng5
閒 eng5
塋 eng5
楹 eng5
榮 eng5
熒 eng5
瑩 eng5
嬴 eng5
縈 eng5
螢 eng5
嶸 eng5
營 eng5
瀛 eng5
贏 eng5
嫈 eng5
滎 eng5
禜 eng5
罃 eng5
醟 eng5
瀅 eng5
鎣 eng5
瀠 eng5
巆 eng5
瀯 eng5
蠑 eng5
籯 eng5
用 eng7
泳 eng7
詠 eng7
甿 eng7
嬰 enn
嚶 enn
牙 ga5
呀 ga5
芽 ga5
衙 ga5
庌 ga5
枒 ga5
啀 ga5
齖 ga5
訝 ga7
庌 ga7
迓 ga7
砑 ga7
騃 gai2
呆 gai5
崖 gai5
捱 gai5
涯 gai5
剴 gai5
皚 gai5
睚 gai5
獃 gai5
艾 gai7
閡 gai7
礙 gai7
乂 gai7
鴱 gai7
鸑 gak
岳 gak8
樂 gak8
嶽 gak8
儑 gam
岩 gam5
巖 gam5
玵 gam5
啽 gam5
喦 gam5
嵒 gam5
碞 gam5
眼 gan2
凝 gan5
顏 gan5
岸 gan7
彥 gan7
唁 gan7
這 gan7
雁 gan7
諺 gan7
贗 gan7
厂 gan7
犴 gan7
婩 gan7
喭 gan7
鴈 gan7
哈 gap
賢 gau5
捏 ge2
睨 ge2
詣 ge2
帠 ge2
盻 ge2
掜 ge2
鬩 ge2
鯢 ge2
齯 ge2
牙 ge5
芽 ge5
倪 ge5
衙 ge5
霓 ge5
猊 ge5
郳 ge5
蜺 ge5
輗 ge5
鶂 ge5
麑 ge5
羿 ge7
詣 ge7
毅 ge7
劓 ge7
藝 ge7
囈 ge7
埶 ge7
蓺 ge7
寱 ge7
藙 ge7
月 geh8
玉 gek8
逆 gek8
詻 gek8
獄 gek8
額 gek8
嶷 gek8
鶂 gek8
鷊 gek8
研 geng2
眼 geng2
矨 geng2
牙 geng5
迎 geng5
凝 geng5
龍 geng5
迎 geng7
勁 geng7
硬 geng7
捏 gi2
擬 gi2
蟻 gi2
掜 gi2
儗 gi2
螘 gi2
檥 gi2
薿 gi2
艤 gi2
譺 gi2
宜 gi5
枇 gi5
琵 gi5
疑 gi5
儀 gi5
嶬 gi5
嶷 gi5
鸃 gi5
栗 gi7
義 gi7
毅 gi7
誼 gi7
劓 gi7
議 gi7
呀 gia5
抬 gia5
迎 gia5
蜈 gia5
鵝 gia5
夯 gia5
撠 giah
額 giah8
儼 giam2
噞 giam2
岩 giam5
閻 giam5
嚴 giam5
巖 giam5
釅 giam5
喦 giam5
嵒 giam5
碞 giam5
驗 giam7
噞 giam7
妍 gian
研 gian
揅 gian
鳽 gian
研 gian2
臉 gian2
甗 gian2
巘 gian2
齴 gian2
癮 gian3
妍 gian5
言 gian5
巘 gian5
研 gian7
妍 giang
鏘 giang
齴 giang3
業 giap8
鄴 giap8
孽 giap8
臬 giat
喫 giat
蠍 giat
齧 giat
隉 giat
槷 giat
蝎 giat
臲 giat
嚙 giat
闑 giat
囓 giat
臬 giat8
喫 giat8
鎳 giat8
孽 giat8
聐 giat8
嶭 giat8
闑 giat8
櫱 giat8
讞 giat8
堯 giau5
僥 giau5
蟯 giau5
嶢 giau5
蕘 giau5
蕎 giau7
臞 gih8
錦 gim2
趛 gim2
吟 gim5
岑 gim5
涔 gim5
坅 gim5
崟 gim5
擒 gim7
扲 gim7
囝 gin2
听 gin2
磭 gin2
垽 gin3
哏 gin7
垽 gin7
憖 gin7
橈 gio5
蟯 gio5
謔 gioh8
玉 giok8
虐 giok8
獄 giok8
瘧 giok8
鈺 giok8
鳿 giok8
軉 giok8
仰 giong2
拱 giong2
卬 giong2
邛 giong7
岌 gip8
岋 gip8
屹 git
迄 git
疙 git
紇 git
仡 git
扢 git
汔 git
犵 git
耴 git
扭 giu2
牛 giu5
厄 go5
俄 go5
哦 go5
娥 go5
峨 go5
敖 go5
訛 go5
蛾 go5
嗷 go5
熬 go5
遨 go5
聱 go5
鵝 go5
囂 go5
鼇 go5
吪 go5
囮 go5
珴 go5
莪 go5
硪 go5
廒 go5
獒 go5
璈 go5
磝 go5
螯 go5
謷 go5
驁 go5
鰲 go5
臥 go7
敖 go7
傲 go7
餓 go7
奡 go7
謷 go7
鏊 go7
驁 go7
我 goa2
外 goa7
訝 goa7
嚄 goa7
我 goan2
沅 goan2
阮 goan2
玩 goan2
妧 goan2
忨 goan2
杬 goan2
翫 goan2
元 goan5
玄 goan5
沅 goan5
原 goan5
員 goan5
源 goan5
頑 goan5
騵 goan5
刓 goan5
岏 goan5
邧 goan5
杬 goan5
芫 goan5
蚖 goan5
嫄 goan5
縓 goan5
羱 goan5
螈 goan5
黿 goan5
愿 goan7
願 goan7
薍 goan7
月 goat8
刖 goat8
軏 goat8
仴 goat8
抈 goat8
鈅 goat8
倪 goe5
外 goe7
藝 goe7
蓺 goe7
愕 gok8
鄂 gok8
萼 gok8
詻 gok8
噩 gok8
鍔 gok8
鵠 gok8
鱷 gok8
咢 gok8
崿 gok8
諤 gok8
遻 gok8
鶚 gok8
齶 gok8
昂 gong5
卬 gong5
吳 gou5
梧 gou5
蜈 gou5
峿 gou5
珸 gou5
鯃 gou5
五 gou7
午 gou7
悟 gou7
捂 gou7
晤 gou7
寤 gou7
誤 gou7
忤 gou7
迕 gou7
俉 gou7
遻 gou7
圄 gu2
圉 gu2
敔 gu2
語 gu2
禦 gu2
齬 gu2
俁 gu2
鋙 gu2
噳 gu2
麌 gu2
牛 gu5
禺 gu5
魚 gu5
隅 gu5
愚 gu5
虞 gu5
漁 gu5
喁 gu5
嵎 gu5
腢 gu5
澞 gu5
齵 gu5
御 gu7
寓 gu7
馭 gu7
遇 gu7
語 gu7
禦 gu7
姽 gui2
隗 gui2
頠 gui2
危 gui5
儡 gui5
巍 gui5
峗 gui5
洈 gui5
嵬 gui5
鮠 gui5
魏 gui7
蘶 gui7
我 gun2
諢 gun3
垠 gun5
狠 gun5
鄞 gun5
銀 gun5
齦 gun5
哏 gun5
狺 gun5
誾 gun5
憖 gun5
嚚 gun5
齗 gun5
兀 gut
吃 gut
屹 gut
迄 gut
訖 gut
仡 gut
屼 gut
忔 gut
扤 gut
扢 gut
杌 gut
矹 gut
矻 gut
芞 gut
卼 gut
趷 gut
聐 gut
兀 gut8
扤 gut8
呵 ha
噓 ha
下 ha3
孝 ha3
嚇 ha3
襾 ha3
哧 ha3
嗄 ha3
颬 ha3
瘕 ha3
罅 ha3
牙 ha5
假 ha5
瑕 ha5
遐 ha5
緞 ha5
蝦 ha5
霞 ha5
縖 ha5
赮 ha5
蕸 ha5
騢 ha5
下 ha7
夏 ha7
唬 ha7
廈 ha7
暇 ha7
嘩 ha7
嚇 ha7
譁 ha7
哧 ha7
喝 hah
合 hah8
脅 hah8
縖 hah8
鮭 hai
咍 hai
唉 hai2
海 hai2
駭 hai2
醢 hai2
屝 hai3
咳 hai5
孩 hai5
械 hai5
鞋 hai5
諧 hai5
骸 hai5
妎 hai5
頦 hai5
龤 hai5
亥 hai7
劾 hai7
迦 hai7
害 hai7
械 hai7
閡 hai7
懈 hai7
邂 hai7
蟹 hai7
嗐 hai7
觟 hai7
嶰 hai7
澥 hai7
獬 hai7
韰 hai7
薤 hai7
瀣 hai7
齘 hai7
嗀 hak
觳 hak
斛 hak8
學 hak8
槲 hak8
壆 hak8
翯 hak8
澩 hak8
觳 hak8
礐 hak8
戄 hak8
甘 ham
蚶 ham
酣 ham
鹹 ham
邯 ham
憨 ham
魽 ham
喊 ham2
撼 ham2
頷 ham2
泔 ham2
淊 ham2
欿 ham2
噉 ham2
闞 ham2
鬫 ham2
咁 ham3
譀 ham3
鬫 ham3
含 ham5
函 ham5
咸 ham5
啣 ham5
涵 ham5